supercell of unknown system             
   1.00000000000000     
     9.3818237981507107   -0.0009982463641454   -0.0003877397044471
    -4.6917818808498248    8.1030637359327926    0.0028511271635757
    -0.0003921119729672    0.0033015104843465    9.9499436152675322
   Al   Zr   N 
    35     1    36
Direct
  0.2221888146977093  0.1110498340629604  0.2955621444051744
  0.1098288284427369  0.2202071566776738  0.0461983506233068
  0.8888362592289027  0.1105895694394974  0.7950044754920356
  0.7776451716206907  0.2218901745979025  0.5464583442570188
  0.5563257996192377  0.1105567398552338  0.2949547160061243
  0.4436959504744493  0.2201174381576152  0.0461844474948165
  0.2226829723793315  0.1120835555465618  0.7954674957637593
  0.1059088149771128  0.2191078642945357  0.5437219199285437
  0.8876795695643835  0.1106221157793996  0.2949722758779174
  0.7776316911953671  0.2218774873030611  0.0448560301134009
  0.5550896538026038  0.1105556253462723  0.7950156592744690
  0.4463005784459213  0.2186565602959405  0.5436773419244290
  0.2219012746914757  0.4431756786969672  0.2915894649898760
  0.1099818279277471  0.5563718588616595  0.0463171446360207
  0.8891706733745366  0.4449509533274068  0.7951184621788911
  0.7843716914770340  0.5561742943839079  0.5437966099441383
  0.5548589012211878  0.4431416602658160  0.2913632728220179
  0.4443904338381159  0.5554413627634176  0.0431097897390629
  0.2133706186021627  0.4401664991978720  0.8011181057891648
  0.1052780464425638  0.5561828106085542  0.5438385988942045
  0.8884063505753872  0.4432879732325503  0.2950333915459922
  0.7798086565137510  0.5563679958741687  0.0462842446080813
  0.5601020136867731  0.4401179125689438  0.8012537969186511
  0.2221721279240683  0.7779104270565469  0.2955040269977545
  0.1111595763801674  0.8890139535680390  0.0450569653532185
  0.8892036861681589  0.7781656723368400  0.7955637660760075
  0.7800068572797230  0.8930833395454272  0.5441053601549086
  0.5548348622955572  0.7761312715326270  0.2934771427479390
  0.4437354821943131  0.8891968904046976  0.0461377686743845
  0.2222166378272092  0.7782035696645195  0.7955776734022493
  0.1118039861568505  0.8904971362667311  0.5457082994584894
  0.8890620781038692  0.7779081143313960  0.2955006379173213
  0.7787893420443268  0.8892096795237592  0.0461198930504167
  0.5595300886363646  0.7857730733673662  0.7988580960897451
  0.4461834116724361  0.8931282188135725  0.5440876034976441
  0.4400915257958715  0.5457465558376668  0.5658581696797853
  0.1097977268748309  0.2213051521258436  0.3526761081197733
  0.2220164736428103  0.1107163871044818  0.1048257844673444
  0.7776833418209677  0.2219947683706351  0.8534136625060071
  0.8889672533116553  0.1111680379783948  0.6043140730172212
  0.4449092314690759  0.2212557568844602  0.3526354267539134
  0.5562645632653869  0.1111428542653456  0.1044931424589919
  0.1093634975308575  0.2191867796436284  0.8563274352462074
  0.2238096730557046  0.1144005110724180  0.6035025365598727
  0.7775425682625468  0.2216679365834580  0.3548489214147281
  0.8882425323250516  0.1111514467531691  0.1044913276326795
  0.4431675484887165  0.2191262170355444  0.8563255285485951
  0.5555380341650888  0.1111470094694056  0.6043094316988302
  0.1109740733337787  0.5549153494667181  0.3527654141523513
  0.2213496286188601  0.4441417162064596  0.0997549060981768
  0.7810126418856953  0.5570987334737225  0.8565641206315036
  0.8890026233225186  0.4446507004571600  0.6042565580936881
  0.4435360139283162  0.5532972291222222  0.3418044407878753
  0.5561465287949048  0.4440980589780636  0.0996348885584979
  0.1094789940426821  0.5571509503022227  0.8566042062130137
  0.1926827593331026  0.4327404798770047  0.6122238870733199
  0.7774582387494107  0.5548773011335584  0.3527321862752046
  0.8884640772418919  0.4435497569584470  0.1047215101866144
  0.4442939172577738  0.5552502445462224  0.8447235300087570
  0.5733127872480495  0.4323028379558380  0.6121786201500328
  0.1110689442203920  0.8887970553400493  0.3548365845771571
  0.2218762613609471  0.7783427105994178  0.1048149648784786
  0.7801690833692163  0.8896773339124024  0.8561575052771815
  0.8888855729746226  0.7785320091787256  0.6034933396043343
  0.4444100481511200  0.8880509106384480  0.3530010352536408
  0.5556850983950170  0.7780627458899900  0.1006556558486480
  0.1113319657038758  0.8894056007600781  0.8534557342773752
  0.2227791442108256  0.7786292298908819  0.6034921024540552
  0.7770976233371201  0.8881425907333949  0.3530228955254060
  0.8897391218176125  0.7783205133055731  0.1048030346181079
  0.4428133964507310  0.8896777270660579  0.8561919732749956
  0.5682254730783285  0.8036026115655019  0.6109079863163345
 
  0.00000000E+00  0.00000000E+00  0.00000000E+00
  0.00000000E+00  0.00000000E+00  0.00000000E+00
  0.00000000E+00  0.00000000E+00  0.00000000E+00
  0.00000000E+00  0.00000000E+00  0.00000000E+00
  0.00000000E+00  0.00000000E+00  0.00000000E+00
  0.00000000E+00  0.00000000E+00  0.00000000E+00
  0.00000000E+00  0.00000000E+00  0.00000000E+00
  0.00000000E+00  0.00000000E+00  0.00000000E+00
  0.00000000E+00  0.00000000E+00  0.00000000E+00
  0.00000000E+00  0.00000000E+00  0.00000000E+00
  0.00000000E+00  0.00000000E+00  0.00000000E+00
  0.00000000E+00  0.00000000E+00  0.00000000E+00
  0.00000000E+00  0.00000000E+00  0.00000000E+00
  0.00000000E+00  0.00000000E+00  0.00000000E+00
  0.00000000E+00  0.00000000E+00  0.00000000E+00
  0.00000000E+00  0.00000000E+00  0.00000000E+00
  0.00000000E+00  0.00000000E+00  0.00000000E+00
  0.00000000E+00  0.00000000E+00  0.00000000E+00
  0.00000000E+00  0.00000000E+00  0.00000000E+00
  0.00000000E+00  0.00000000E+00  0.00000000E+00
  0.00000000E+00  0.00000000E+00  0.00000000E+00
  0.00000000E+00  0.00000000E+00  0.00000000E+00
  0.00000000E+00  0.00000000E+00  0.00000000E+00
  0.00000000E+00  0.00000000E+00  0.00000000E+00
  0.00000000E+00  0.00000000E+00  0.00000000E+00
  0.00000000E+00  0.00000000E+00  0.00000000E+00
  0.00000000E+00  0.00000000E+00  0.00000000E+00
  0.00000000E+00  0.00000000E+00  0.00000000E+00
  0.00000000E+00  0.00000000E+00  0.00000000E+00
  0.00000000E+00  0.00000000E+00  0.00000000E+00
  0.00000000E+00  0.00000000E+00  0.00000000E+00
  0.00000000E+00  0.00000000E+00  0.00000000E+00
  0.00000000E+00  0.00000000E+00  0.00000000E+00
  0.00000000E+00  0.00000000E+00  0.00000000E+00
  0.00000000E+00  0.00000000E+00  0.00000000E+00
  0.00000000E+00  0.00000000E+00  0.00000000E+00
  0.00000000E+00  0.00000000E+00  0.00000000E+00
  0.00000000E+00  0.00000000E+00  0.00000000E+00
  0.00000000E+00  0.00000000E+00  0.00000000E+00
  0.00000000E+00  0.00000000E+00  0.00000000E+00
  0.00000000E+00  0.00000000E+00  0.00000000E+00
  0.00000000E+00  0.00000000E+00  0.00000000E+00
  0.00000000E+00  0.00000000E+00  0.00000000E+00
  0.00000000E+00  0.00000000E+00  0.00000000E+00
  0.00000000E+00  0.00000000E+00  0.00000000E+00
  0.00000000E+00  0.00000000E+00  0.00000000E+00
  0.00000000E+00  0.00000000E+00  0.00000000E+00
  0.00000000E+00  0.00000000E+00  0.00000000E+00
  0.00000000E+00  0.00000000E+00  0.00000000E+00
  0.00000000E+00  0.00000000E+00  0.00000000E+00
  0.00000000E+00  0.00000000E+00  0.00000000E+00
  0.00000000E+00  0.00000000E+00  0.00000000E+00
  0.00000000E+00  0.00000000E+00  0.00000000E+00
  0.00000000E+00  0.00000000E+00  0.00000000E+00
  0.00000000E+00  0.00000000E+00  0.00000000E+00
  0.00000000E+00  0.00000000E+00  0.00000000E+00
  0.00000000E+00  0.00000000E+00  0.00000000E+00
  0.00000000E+00  0.00000000E+00  0.00000000E+00
  0.00000000E+00  0.00000000E+00  0.00000000E+00
  0.00000000E+00  0.00000000E+00  0.00000000E+00
  0.00000000E+00  0.00000000E+00  0.00000000E+00
  0.00000000E+00  0.00000000E+00  0.00000000E+00
  0.00000000E+00  0.00000000E+00  0.00000000E+00
  0.00000000E+00  0.00000000E+00  0.00000000E+00
  0.00000000E+00  0.00000000E+00  0.00000000E+00
  0.00000000E+00  0.00000000E+00  0.00000000E+00
  0.00000000E+00  0.00000000E+00  0.00000000E+00
  0.00000000E+00  0.00000000E+00  0.00000000E+00
  0.00000000E+00  0.00000000E+00  0.00000000E+00
  0.00000000E+00  0.00000000E+00  0.00000000E+00
  0.00000000E+00  0.00000000E+00  0.00000000E+00
  0.00000000E+00  0.00000000E+00  0.00000000E+00

