supercell of unknown system             
   1.00000000000000     
     9.4132684084259051   -0.0043835989757731    0.0275881189657510
    -4.7103391377170363    8.1500064068082647   -0.0275603266865571
     0.0297371859722518   -0.0171752086379268    9.9563292964307397
   Al   Hf   N 
    34     2    36
Direct
  0.2182135870941053  0.1057715823086767  0.2958599891594957
  0.1089310137504569  0.2197098324150701  0.0452491673976496
  0.8888299735336105  0.1097946109061851  0.7935474560850224
  0.7774560618968849  0.2211436188358746  0.5470081318192399
  0.5561410011378101  0.1073997416443433  0.2942933091878217
  0.4427293029676775  0.2210808966038655  0.0474406827099045
  0.2209112870514858  0.1091223589290919  0.7974185683504231
  0.1090526565281706  0.2181057754108622  0.5432651804399740
  0.8881136820847431  0.1105134969946420  0.2946691609283789
  0.7772296898243312  0.2213704685995665  0.0445236697199789
  0.5551508226775113  0.1098938247755470  0.7962392282354287
  0.4409220842206807  0.2133392515162882  0.5497973439710648
  0.2117264758753876  0.4439359785273354  0.2886210561298199
  0.1086574150344788  0.5561437602908441  0.0443495568552308
  0.8887035181571292  0.4434479454707940  0.7962380211659834
  0.7852661030466379  0.5576765776176913  0.5497966036573771
  0.4421055181265388  0.5565071280273415  0.0432168230949870
  0.2151163564625307  0.4399610039122024  0.7992144252761406
  0.1065377135066186  0.5529841461539746  0.5444381000501366
  0.8912005793512705  0.4424577446350568  0.2942940183031908
  0.7775297615761545  0.5558760038158255  0.0474378463146365
  0.5592866253320423  0.4393028582083005  0.8034585417087214
  0.2216940821419584  0.7768960730220229  0.2967254054095960
  0.1107426439952448  0.8878548992838233  0.0459580115105709
  0.8894669462661611  0.7776833358993400  0.7974188934618169
  0.7805046790077341  0.8895647559317226  0.5432651363034253
  0.5546769210841518  0.7868926304873582  0.2886199722688687
  0.4424508779515719  0.8899428933745881  0.0443486306090648
  0.2216994501248237  0.7768887905105970  0.7948993717169728
  0.1111843985507335  0.8874101099015661  0.5465806404105322
  0.8928224564223939  0.7803896452010690  0.2958611583769439
  0.7788999963137115  0.8896845001996496  0.0452485469503827
  0.5586544299987608  0.7835045579656921  0.7992149983767476
  0.4456047869632584  0.8920673718383796  0.5444367344940204
  0.5504668996480220  0.4481319860078514  0.3211773299926080
  0.4469158831522293  0.5517090037630226  0.5533448718612277
  0.1105742269883265  0.2220387982145269  0.3510374055174807
  0.2204864480491011  0.1098420258600115  0.1049669924679080
  0.7776502401059560  0.2209493109458904  0.8535375372291369
  0.8890540711491823  0.1095598098670507  0.6022361793713245
  0.4349121674907366  0.1994572604599227  0.3585947016678190
  0.5555747883209037  0.1115440674641945  0.1036973656208460
  0.1090955635590944  0.2189712301683997  0.8551733365386411
  0.2196410380262535  0.1082394031072482  0.6066361881969371
  0.7772359180086141  0.2213631527710618  0.3542997415965488
  0.8876206663458674  0.1109933017030684  0.1040157886100488
  0.4420814478790263  0.2179240545768906  0.8574280807594903
  0.5556387808040455  0.1087171701870773  0.6062959499710914
  0.1073075881085686  0.5546045592680926  0.3536335491006142
  0.2177869818032292  0.4429509458105301  0.0975561949914976
  0.7806666396622930  0.5565119506649125  0.8574253549860060
  0.8898859213419925  0.4429578917836139  0.6062955169645861
  0.4240140271811512  0.5746104446556330  0.3407175350533507
  0.5524598007968820  0.4461516721156471  0.0996005171916181
  0.1099418880180636  0.5562128160504045  0.8546562074851280
  0.2021280909348064  0.4327001885901964  0.6090071471245793
  0.7991403991902430  0.5636873438772625  0.3585923440269525
  0.8870571344577414  0.4430229312142870  0.1036979032550107
  0.4438682063036339  0.5547506626399965  0.8451111382589858
  0.5697146412750200  0.4288875616162997  0.6151924643961948
  0.1104824722744695  0.8881124704528389  0.3555693597544973
  0.2212047544401941  0.7773906014557568  0.1050051749947798
  0.7796441516467070  0.8895269577541924  0.8551725518558015
  0.8903542462007508  0.7789585172764575  0.6066361540512801
  0.4439881919015107  0.8912934404776252  0.3536320320394566
  0.5556574799553005  0.7808267092786991  0.0975543220938491
  0.1110228884980629  0.8875658074664727  0.8550970548844319
  0.2225782613025373  0.7760133510306630  0.6030245558001042
  0.7765763178337792  0.8880527595046601  0.3510373143656764
  0.8887566089852967  0.7781182338213100  0.1049669081069950
  0.4423800638939213  0.8886552715440672  0.8546550111820750
  0.5659110411353652  0.7965024230158875  0.6090083625206972
 
  0.00000000E+00  0.00000000E+00  0.00000000E+00
  0.00000000E+00  0.00000000E+00  0.00000000E+00
  0.00000000E+00  0.00000000E+00  0.00000000E+00
  0.00000000E+00  0.00000000E+00  0.00000000E+00
  0.00000000E+00  0.00000000E+00  0.00000000E+00
  0.00000000E+00  0.00000000E+00  0.00000000E+00
  0.00000000E+00  0.00000000E+00  0.00000000E+00
  0.00000000E+00  0.00000000E+00  0.00000000E+00
  0.00000000E+00  0.00000000E+00  0.00000000E+00
  0.00000000E+00  0.00000000E+00  0.00000000E+00
  0.00000000E+00  0.00000000E+00  0.00000000E+00
  0.00000000E+00  0.00000000E+00  0.00000000E+00
  0.00000000E+00  0.00000000E+00  0.00000000E+00
  0.00000000E+00  0.00000000E+00  0.00000000E+00
  0.00000000E+00  0.00000000E+00  0.00000000E+00
  0.00000000E+00  0.00000000E+00  0.00000000E+00
  0.00000000E+00  0.00000000E+00  0.00000000E+00
  0.00000000E+00  0.00000000E+00  0.00000000E+00
  0.00000000E+00  0.00000000E+00  0.00000000E+00
  0.00000000E+00  0.00000000E+00  0.00000000E+00
  0.00000000E+00  0.00000000E+00  0.00000000E+00
  0.00000000E+00  0.00000000E+00  0.00000000E+00
  0.00000000E+00  0.00000000E+00  0.00000000E+00
  0.00000000E+00  0.00000000E+00  0.00000000E+00
  0.00000000E+00  0.00000000E+00  0.00000000E+00
  0.00000000E+00  0.00000000E+00  0.00000000E+00
  0.00000000E+00  0.00000000E+00  0.00000000E+00
  0.00000000E+00  0.00000000E+00  0.00000000E+00
  0.00000000E+00  0.00000000E+00  0.00000000E+00
  0.00000000E+00  0.00000000E+00  0.00000000E+00
  0.00000000E+00  0.00000000E+00  0.00000000E+00
  0.00000000E+00  0.00000000E+00  0.00000000E+00
  0.00000000E+00  0.00000000E+00  0.00000000E+00
  0.00000000E+00  0.00000000E+00  0.00000000E+00
  0.00000000E+00  0.00000000E+00  0.00000000E+00
  0.00000000E+00  0.00000000E+00  0.00000000E+00
  0.00000000E+00  0.00000000E+00  0.00000000E+00
  0.00000000E+00  0.00000000E+00  0.00000000E+00
  0.00000000E+00  0.00000000E+00  0.00000000E+00
  0.00000000E+00  0.00000000E+00  0.00000000E+00
  0.00000000E+00  0.00000000E+00  0.00000000E+00
  0.00000000E+00  0.00000000E+00  0.00000000E+00
  0.00000000E+00  0.00000000E+00  0.00000000E+00
  0.00000000E+00  0.00000000E+00  0.00000000E+00
  0.00000000E+00  0.00000000E+00  0.00000000E+00
  0.00000000E+00  0.00000000E+00  0.00000000E+00
  0.00000000E+00  0.00000000E+00  0.00000000E+00
  0.00000000E+00  0.00000000E+00  0.00000000E+00
  0.00000000E+00  0.00000000E+00  0.00000000E+00
  0.00000000E+00  0.00000000E+00  0.00000000E+00
  0.00000000E+00  0.00000000E+00  0.00000000E+00
  0.00000000E+00  0.00000000E+00  0.00000000E+00
  0.00000000E+00  0.00000000E+00  0.00000000E+00
  0.00000000E+00  0.00000000E+00  0.00000000E+00
  0.00000000E+00  0.00000000E+00  0.00000000E+00
  0.00000000E+00  0.00000000E+00  0.00000000E+00
  0.00000000E+00  0.00000000E+00  0.00000000E+00
  0.00000000E+00  0.00000000E+00  0.00000000E+00
  0.00000000E+00  0.00000000E+00  0.00000000E+00
  0.00000000E+00  0.00000000E+00  0.00000000E+00
  0.00000000E+00  0.00000000E+00  0.00000000E+00
  0.00000000E+00  0.00000000E+00  0.00000000E+00
  0.00000000E+00  0.00000000E+00  0.00000000E+00
  0.00000000E+00  0.00000000E+00  0.00000000E+00
  0.00000000E+00  0.00000000E+00  0.00000000E+00
  0.00000000E+00  0.00000000E+00  0.00000000E+00
  0.00000000E+00  0.00000000E+00  0.00000000E+00
  0.00000000E+00  0.00000000E+00  0.00000000E+00
  0.00000000E+00  0.00000000E+00  0.00000000E+00
  0.00000000E+00  0.00000000E+00  0.00000000E+00
  0.00000000E+00  0.00000000E+00  0.00000000E+00
  0.00000000E+00  0.00000000E+00  0.00000000E+00
