Al   Hf   N                             
   1.00000000000000     
     9.5310854261649567    0.0099091401737181    0.0098255627534874
    -4.7666013209182276    8.2389650381724646    0.0069503873942930
    -0.1270402234719442   -0.0474430924990082   10.3337618359604786
   Al   Hf   N 
    34     2    36
Direct
  0.2241636776329715  0.1215545547834242  0.3979318821600625
  0.8852572314085452  0.1044844423653355  0.8202441093438825
  0.7704539243751117  0.2212219487677397  0.6387822268107695
  0.5581445923842442  0.1145101390576269  0.3874956824231164
  0.4486618956829490  0.2234675245769946  0.1396753996324404
  0.2314374612758565  0.1108742386884663  0.8788132301000696
  0.1167857188134919  0.2228818888341853  0.6417897417893010
  0.8757084831466317  0.1025329995924813  0.3246152200423610
  0.7717768669244963  0.2274170771634928  0.1402635826433395
  0.5555414869374510  0.1110467346628425  0.8874841810153643
  0.4475367598450908  0.2243132057406042  0.6378208259891816
  0.2225367524925463  0.4338479776282864  0.3980417451933309
  0.1178695015628786  0.5683835643619348  0.0570460953143868
  0.8785015422467392  0.4386601442395004  0.8821523883978601
  0.7699981720690559  0.5493351702800229  0.6399972564600617
  0.5543803849279597  0.4456179993093571  0.3865784936067193
  0.4483076116425659  0.5583929032734850  0.1386773796270325
  0.2307215119263932  0.4494663840098411  0.8730722789398219
  0.1060102131508106  0.5491955137746075  0.5894984356751842
  0.8737866407585432  0.4374107237074286  0.3944569956804250
  0.7789110546900335  0.5518320578988624  0.1375402119406732
  0.5564232215676381  0.4446114344909673  0.8890145162502558
  0.4493558338069788  0.5581250719234415  0.6374779860148417
  0.1111535521577700  0.8762139113609263  0.0595468618159484
  0.8872422401933819  0.7810264896982694  0.8182658521474724
  0.7825318283588705  0.8917560595872105  0.5679587765646169
  0.5497712380422599  0.7761536251868015  0.3883461589869189
  0.4633383313409064  0.8984678215289259  0.1310096821812416
  0.2162147687379713  0.7752395702116343  0.8112140206753941
  0.1011544620981017  0.8863598396020366  0.5761440168054616
  0.8885207417213827  0.7859948112684547  0.3175774439777938
  0.7815667328308009  0.8893025365555047  0.0678227206866965
  0.5493182699435012  0.7740964240959773  0.8870020984901332
  0.4497519114424770  0.8911631266997205  0.6348543715926981
  0.1279944049546829  0.2293629315063478  0.1234020868184280
  0.2142132378936985  0.7681480752882889  0.3350197690248344
  0.1057459867608347  0.2180502089480069  0.3420203331233796
  0.2417079639918006  0.1021292993618456  0.0638351345960748
  0.7721149477571153  0.2211076263498843  0.8269055160045056
  0.8865698691500451  0.1069575066316421  0.6297253469809609
  0.4408335271660424  0.2202842371619829  0.3293927993641773
  0.5588983897205543  0.1174229661676123  0.0724049555731995
  0.1183825851750703  0.2230640914082107  0.8338141650426285
  0.2276648700109057  0.1178143973457044  0.5867835345687965
  0.7711996939343602  0.2293411160406407  0.3292648198352247
  0.8626835391034019  0.0939274994730522  0.1386063207016033
  0.4492807938849385  0.2241696067576045  0.8234542972587096
  0.5525474308282854  0.1094340541391166  0.5746999737151274
  0.0944241425388680  0.5263787102637890  0.3836881145155577
  0.2416355304513146  0.4697452569214895  0.0579496541836296
  0.7710264980285305  0.5495135729703886  0.8274792252616576
  0.8761562416939871  0.4392823572010956  0.5829656601097062
  0.4404024338952180  0.5553999965348032  0.3279735655069463
  0.5586072310521754  0.4462315087651448  0.0768465604862979
  0.1065682666263003  0.5540806298736167  0.8531533961474709
  0.2269394535105040  0.4405406391300747  0.5879989540575360
  0.7728348435887707  0.5519982261397771  0.3266581171150422
  0.8882687211303709  0.4447261955775902  0.0715440287074931
  0.4510103441266480  0.5579390260280318  0.8221622067960116
  0.5544018841276561  0.4446497566960484  0.5741033463943831
  0.0951474418730231  0.8952430305179979  0.3924711795523049
  0.2310136670008580  0.7801355125529759  0.1147209522388418
  0.7833338465421203  0.8911797128469583  0.8807867210204275
  0.8856396189653919  0.7810014172228129  0.6328525739076649
  0.4802197956479318  0.9096819859053636  0.3132234600554363
  0.5531017241108146  0.7724313094936095  0.0733662548945343
  0.1059259872863643  0.8788846841082404  0.8712516612701341
  0.2149287696136419  0.7763882800071435  0.6216957847065110
  0.7790765344121677  0.8870788067812131  0.3831038813205014
  0.8972669408499506  0.7859795377073717  0.1284552180805655
  0.4490012719918188  0.8914652417308880  0.8237806514878080
  0.5492489934655295  0.7752167176680136  0.5768577629321954
 
             NaN             NaN             NaN
             NaN             NaN             NaN
             NaN             NaN             NaN
             NaN             NaN             NaN
             NaN             NaN             NaN
             NaN             NaN             NaN
             NaN             NaN             NaN
             NaN             NaN             NaN
             NaN             NaN             NaN
             NaN             NaN             NaN
             NaN             NaN             NaN
             NaN             NaN             NaN
             NaN             NaN             NaN
             NaN             NaN             NaN
             NaN             NaN             NaN
             NaN             NaN             NaN
             NaN             NaN             NaN
             NaN             NaN             NaN
             NaN             NaN             NaN
             NaN             NaN             NaN
             NaN             NaN             NaN
             NaN             NaN             NaN
             NaN             NaN             NaN
             NaN             NaN             NaN
             NaN             NaN             NaN
             NaN             NaN             NaN
             NaN             NaN             NaN
             NaN             NaN             NaN
             NaN             NaN             NaN
             NaN             NaN             NaN
             NaN             NaN             NaN
             NaN             NaN             NaN
             NaN             NaN             NaN
             NaN             NaN             NaN
             NaN             NaN             NaN
             NaN             NaN             NaN
             NaN             NaN             NaN
             NaN             NaN             NaN
             NaN             NaN             NaN
             NaN             NaN             NaN
             NaN             NaN             NaN
             NaN             NaN             NaN
             NaN             NaN             NaN
             NaN             NaN             NaN
             NaN             NaN             NaN
             NaN             NaN             NaN
             NaN             NaN             NaN
             NaN             NaN             NaN
             NaN             NaN             NaN
             NaN             NaN             NaN
             NaN             NaN             NaN
             NaN             NaN             NaN
             NaN             NaN             NaN
             NaN             NaN             NaN
             NaN             NaN             NaN
             NaN             NaN             NaN
             NaN             NaN             NaN
             NaN             NaN             NaN
             NaN             NaN             NaN
             NaN             NaN             NaN
             NaN             NaN             NaN
             NaN             NaN             NaN
             NaN             NaN             NaN
             NaN             NaN             NaN
             NaN             NaN             NaN
             NaN             NaN             NaN
             NaN             NaN             NaN
             NaN             NaN             NaN
             NaN             NaN             NaN
             NaN             NaN             NaN
             NaN             NaN             NaN
             NaN             NaN             NaN
