Al   Hf   N                             
   1.00000000000000     
     9.5235904961610629    0.0141662433804300    0.0180352597315458
    -4.7462669612221537    8.2484838098078708    0.0147793131133691
    -0.0492682616657937    0.0136163349374756   10.1656781903383155
   Al   Hf   N 
    34     2    36
Direct
  0.2289957342995807  0.1234107825260913  0.3977337161877009
  0.8821865307065918  0.1088122676378567  0.8843946571861560
  0.7776222238282134  0.2227636457585599  0.6361931964122722
  0.5631346832092554  0.1176499786399253  0.3859153847139390
  0.4450061268860198  0.2248423298882563  0.1374284181412585
  0.2285018400008826  0.1128932863918295  0.8756950033368431
  0.1095939461298010  0.2218837351129179  0.6399763409139456
  0.8851978003927528  0.1086682385325884  0.3908215218780514
  0.7724115459765771  0.2214767469036747  0.1351115922044993
  0.5556754979629597  0.1124786728957277  0.8856675680968205
  0.4488830115305245  0.2255592071258519  0.6366166929319302
  0.2254706668567980  0.4467754544963671  0.3926353930415341
  0.1049428885109337  0.5520294980151312  0.1286476828359563
  0.8862259123605224  0.4419699181284731  0.8833454230222847
  0.7743400324553990  0.5499961029862611  0.6343423684796672
  0.5557965240429682  0.4451033298058819  0.3844992527157169
  0.4433045251227348  0.5526450282817617  0.1356318544290606
  0.2249141435965467  0.4517450274104279  0.8760322661657759
  0.1062175320774832  0.5467710770381328  0.6297128926591713
  0.8814084716597422  0.4349080403228943  0.3827192850777326
  0.7768012501110247  0.5536546215473879  0.1304731997653306
  0.5552563603260323  0.4440020165014787  0.8854270305677762
  0.4471652042860167  0.5568905049306588  0.6343268617313320
  0.1103136243615201  0.8744193710851385  0.0603863196929996
  0.8848703000166354  0.7743840028352068  0.8353139738473275
  0.7741864847915815  0.8910150883768431  0.6385066073153636
  0.5578708942777961  0.7777834444707223  0.3876332137449464
  0.4530726686914255  0.8950140541189040  0.1316882535938323
  0.2197126982250149  0.7783235578436708  0.8118542085928732
  0.1019347918748685  0.8903445580135964  0.5780621547209032
  0.8862327873347825  0.7786253569267603  0.3397157147338306
  0.7705635204801062  0.8860104726331126  0.1328233086936616
  0.5527557694864572  0.7758197037605342  0.8869418753383773
  0.4552962135808646  0.8946967987145297  0.6333183077615382
  0.1234636964598193  0.2269795808954727  0.1330986271830699
  0.2286262285093102  0.7695015127108965  0.3592381926367381
  0.1089565714443027  0.2204597026130499  0.3449957987261405
  0.2358373791556354  0.1013265433880996  0.0642254398518882
  0.7761525735974422  0.2221945845946114  0.8241437414014218
  0.8876053292570528  0.1110867413777253  0.5804317706656150
  0.4452084828298412  0.2216133188677222  0.3295642372403003
  0.5556416922787324  0.1148824909477605  0.0737417435311948
  0.1090380119409059  0.2215463173285569  0.8326549358133437
  0.2280820372145848  0.1199961320385683  0.5888487686444076
  0.7773672419772327  0.2202812873499553  0.3248508118491679
  0.8712799249254934  0.1039942073332977  0.0725292386775115
  0.4481564656893333  0.2243505780411270  0.8235473281456811
  0.5579796168768261  0.1137022181110229  0.5752907794279581
  0.0896228853075732  0.5165605572906794  0.3152404501873927
  0.2310549641391849  0.4686952851423327  0.0603472195131293
  0.7721817219641499  0.5461966741234442  0.8249041202420873
  0.8871061795660535  0.4428079551848418  0.5718214630517344
  0.4463698607736645  0.5571977899999780  0.3268381037845920
  0.5577909556921327  0.4459021735013086  0.0734004893898431
  0.1042139430742574  0.5501239592052726  0.8185204825784059
  0.2232831081198342  0.4423936812364108  0.5816936192713342
  0.7759014945494391  0.5506304995013477  0.3241925855858801
  0.8859921024615841  0.4423330888962410  0.0711257490134336
  0.4466030552742010  0.5567145917352747  0.8225701909605233
  0.5560826972373951  0.4449828221314935  0.5737501904118325
  0.0981562430815131  0.8978909830950368  0.3891969070271177
  0.2233711587522557  0.7782088611006936  0.1268804021870122
  0.7720428801577575  0.8906686752785843  0.8284390156978054
  0.8845842607165429  0.7761163811355714  0.6196439080793708
  0.4789415397992008  0.9095335547649488  0.3197739229058842
  0.5532416030853105  0.7747064752653871  0.0745147163938676
  0.1087918841493934  0.8814452456166740  0.8660930208983699
  0.2221316543095833  0.7809770600982716  0.6082036305044989
  0.7755506756569001  0.8913807623062833  0.3257705573879122
  0.8898290167101185  0.7792860499809759  0.1021554391221204
  0.4479704246462358  0.8916804218971378  0.8241801187774225
  0.5577535455768251  0.7787549771001097  0.5765828442162783
 
             NaN             NaN             NaN
             NaN             NaN             NaN
             NaN             NaN             NaN
             NaN             NaN             NaN
             NaN             NaN             NaN
             NaN             NaN             NaN
             NaN             NaN             NaN
             NaN             NaN             NaN
             NaN             NaN             NaN
             NaN             NaN             NaN
             NaN             NaN             NaN
             NaN             NaN             NaN
             NaN             NaN             NaN
             NaN             NaN             NaN
             NaN             NaN             NaN
             NaN             NaN             NaN
             NaN             NaN             NaN
             NaN             NaN             NaN
             NaN             NaN             NaN
             NaN             NaN             NaN
             NaN             NaN             NaN
             NaN             NaN             NaN
             NaN             NaN             NaN
             NaN             NaN             NaN
             NaN             NaN             NaN
             NaN             NaN             NaN
             NaN             NaN             NaN
             NaN             NaN             NaN
             NaN             NaN             NaN
             NaN             NaN             NaN
             NaN             NaN             NaN
             NaN             NaN             NaN
             NaN             NaN             NaN
             NaN             NaN             NaN
             NaN             NaN             NaN
             NaN             NaN             NaN
             NaN             NaN             NaN
             NaN             NaN             NaN
             NaN             NaN             NaN
             NaN             NaN             NaN
             NaN             NaN             NaN
             NaN             NaN             NaN
             NaN             NaN             NaN
             NaN             NaN             NaN
             NaN             NaN             NaN
             NaN             NaN             NaN
             NaN             NaN             NaN
             NaN             NaN             NaN
             NaN             NaN             NaN
             NaN             NaN             NaN
             NaN             NaN             NaN
             NaN             NaN             NaN
             NaN             NaN             NaN
             NaN             NaN             NaN
             NaN             NaN             NaN
             NaN             NaN             NaN
             NaN             NaN             NaN
             NaN             NaN             NaN
             NaN             NaN             NaN
             NaN             NaN             NaN
             NaN             NaN             NaN
             NaN             NaN             NaN
             NaN             NaN             NaN
             NaN             NaN             NaN
             NaN             NaN             NaN
             NaN             NaN             NaN
             NaN             NaN             NaN
             NaN             NaN             NaN
             NaN             NaN             NaN
             NaN             NaN             NaN
             NaN             NaN             NaN
             NaN             NaN             NaN
