Al   Hf   N                             
   1.00000000000000     
     9.5135189728802043    0.0088454284245187    0.0144075657648027
    -4.7540362968967749    8.2454345870594139   -0.0039870002146546
    -0.0573118221949151    0.0067923475175466   10.2151633661763750
   Al   Hf   N 
    34     2    36
Direct
  0.2230637028882701  0.1235655553454598  0.3984965462866013
  0.8821245444634782  0.1069588384535734  0.8262758671072061
  0.7798972814310703  0.2231665714081759  0.5724726841371774
  0.5627556117156088  0.1096110237255727  0.3246566408998318
  0.4409211866958463  0.2165671471921790  0.1415014734672093
  0.2341136382970491  0.1111214630552493  0.8839897651513591
  0.1152153365045561  0.2213194006670348  0.6453481166801794
  0.8779964051827832  0.1027277597195668  0.3287040318098793
  0.7743820730544881  0.2195749679497268  0.0719490349968114
  0.5609737237911424  0.1072479931583518  0.8214782349784061
  0.4459323847441151  0.2230667064649736  0.6399111082230818
  0.2252021209714148  0.4453615087819917  0.3350279087416093
  0.1072561689813372  0.5538003429317840  0.0647406735833441
  0.8860139259112915  0.4422117546492535  0.8243554495586576
  0.7771899048724464  0.5545166547324171  0.5729050564830160
  0.5556736374942505  0.4479422342600212  0.3263669364996269
  0.4513788945513819  0.5638840863981468  0.0744967259983213
  0.2291839146665603  0.4536474054470481  0.8275635810841417
  0.1076152576145327  0.5482929264906582  0.5841686391560742
  0.8883004225728738  0.4457012636241794  0.3223059113816652
  0.7761010713124649  0.5529981251121819  0.0740412430738599
  0.5609987531041666  0.4514239760617318  0.8248881437834974
  0.4483064594208380  0.5579848919667989  0.5765132809501294
  0.1042376515172061  0.8764981214292119  0.0600028731361343
  0.8858200390364064  0.7749152143484195  0.8217576700692412
  0.7783254925599302  0.8873271666963620  0.5733752514438474
  0.5593140492193975  0.7761673249211100  0.3232690228612755
  0.4480962760367229  0.8907037001860947  0.0677426372898025
  0.2242663584398530  0.7781880002076911  0.8186883856352823
  0.1055116347306627  0.8863354883178599  0.5821610972293356
  0.8871827645672601  0.7734013981978032  0.3210617635133401
  0.7705529462652276  0.8821144393639756  0.0737951092276704
  0.5583341186941559  0.7788572514161188  0.8223058737834050
  0.4509232291651202  0.8904038070315783  0.5744444518630758
  0.1064328965473655  0.2298473197979360  0.1037571986787278
  0.2080103915952533  0.7697984407841056  0.3238099880537343
  0.1074785749299397  0.2197745524663597  0.3373058374626750
  0.2372818658247759  0.1017882704740370  0.0689796038303870
  0.7772053082091456  0.2208334209488513  0.8833659992373317
  0.8861996398579570  0.1082393791616339  0.6353348549322543
  0.4372694003896463  0.2163148579269885  0.3359639442606983
  0.5574084946093473  0.1065072624787319  0.1329919588499932
  0.1153024254376896  0.2204050464917483  0.8488341147474124
  0.2273723506265519  0.1190035536804674  0.5891749876908353
  0.7782571867289751  0.2240153459226229  0.3853944177294306
  0.8543444931242249  0.0894041385291010  0.1419823527119194
  0.4480416896926555  0.2224509692490013  0.8313450530964467
  0.5610564472631139  0.1081859747032567  0.6308599307130354
  0.0996766488094392  0.5301907880720464  0.4004470760155027
  0.2419663839029085  0.4824992053325936  0.1428297565700079
  0.7786341593607111  0.5552697983680408  0.8853301388418877
  0.8856353255300798  0.4423041184004948  0.6369806212105322
  0.4456175842019179  0.5560401422847746  0.3891149031322882
  0.5566590324093105  0.4493709850000779  0.1339081992942259
  0.1106481605478417  0.5567733453427486  0.8762633244618693
  0.2295144883605638  0.4500281834827570  0.6393468558184300
  0.7734994614747426  0.5519239545768487  0.3853323092908880
  0.8865181748438944  0.4410856422143505  0.1312728227819303
  0.4485825808409101  0.5586627074280351  0.8856472469218610
  0.5611602781501904  0.4527751452386655  0.6341200709131738
  0.0971333160624020  0.8960285867244391  0.3943469433637031
  0.2237536773524217  0.7792010301738584  0.1129357845971587
  0.7780301368179798  0.8877727893798727  0.8845901835706098
  0.8857167135287729  0.7751660785828778  0.6351889975564277
  0.4601650283483357  0.8933619109011918  0.3868021171807691
  0.5553023591909312  0.7783053921428085  0.1340158335984921
  0.1065556932483619  0.8807109459141327  0.8698440689756115
  0.2245297862291077  0.7783124484884208  0.6273351015009401
  0.7761572643021601  0.8826609551195154  0.3859018651660145
  0.8882528488252242  0.7774878220378503  0.1296054617935280
  0.4464381095821195  0.8881075283028482  0.8789295883706448
  0.5582256700912833  0.7782972635588450  0.6351243934813141
 
             NaN             NaN             NaN
             NaN             NaN             NaN
             NaN             NaN             NaN
             NaN             NaN             NaN
             NaN             NaN             NaN
             NaN             NaN             NaN
             NaN             NaN             NaN
             NaN             NaN             NaN
             NaN             NaN             NaN
             NaN             NaN             NaN
             NaN             NaN             NaN
             NaN             NaN             NaN
             NaN             NaN             NaN
             NaN             NaN             NaN
             NaN             NaN             NaN
             NaN             NaN             NaN
             NaN             NaN             NaN
             NaN             NaN             NaN
             NaN             NaN             NaN
             NaN             NaN             NaN
             NaN             NaN             NaN
             NaN             NaN             NaN
             NaN             NaN             NaN
             NaN             NaN             NaN
             NaN             NaN             NaN
             NaN             NaN             NaN
             NaN             NaN             NaN
             NaN             NaN             NaN
             NaN             NaN             NaN
             NaN             NaN             NaN
             NaN             NaN             NaN
             NaN             NaN             NaN
             NaN             NaN             NaN
             NaN             NaN             NaN
             NaN             NaN             NaN
             NaN             NaN             NaN
             NaN             NaN             NaN
             NaN             NaN             NaN
             NaN             NaN             NaN
             NaN             NaN             NaN
             NaN             NaN             NaN
             NaN             NaN             NaN
             NaN             NaN             NaN
             NaN             NaN             NaN
             NaN             NaN             NaN
             NaN             NaN             NaN
             NaN             NaN             NaN
             NaN             NaN             NaN
             NaN             NaN             NaN
             NaN             NaN             NaN
             NaN             NaN             NaN
             NaN             NaN             NaN
             NaN             NaN             NaN
             NaN             NaN             NaN
             NaN             NaN             NaN
             NaN             NaN             NaN
             NaN             NaN             NaN
             NaN             NaN             NaN
             NaN             NaN             NaN
             NaN             NaN             NaN
             NaN             NaN             NaN
             NaN             NaN             NaN
             NaN             NaN             NaN
             NaN             NaN             NaN
             NaN             NaN             NaN
             NaN             NaN             NaN
             NaN             NaN             NaN
             NaN             NaN             NaN
             NaN             NaN             NaN
             NaN             NaN             NaN
             NaN             NaN             NaN
             NaN             NaN             NaN
