Al   Hf   N                             
   1.00000000000000     
     9.4954554200998338    0.0080092697144876    0.0037852943970769
    -4.7540815040545121    8.2189586522709561    0.0011693235121553
    -0.1120963076037723   -0.0663788486473040   10.4091205633664305
   Al   Hf   N 
    34     2    36
Direct
  0.2214813621734066  0.1213742060846172  0.3997858323864705
  0.8835127393084008  0.1081175769249896  0.8203247392054323
  0.7816678993206239  0.2229742348442727  0.5694870111967276
  0.5505628662820712  0.1087308434212986  0.3889623595509590
  0.4483705312343318  0.2213307664790776  0.1403918464476277
  0.2314259207525637  0.1141138222838833  0.8790322594704136
  0.1169048088944606  0.2248140196387141  0.6439873550004691
  0.8694811577438770  0.1011025832384149  0.3252142167523786
  0.7817455059215703  0.2234351947121667  0.0678977477316707
  0.5508972247443609  0.1087894200056283  0.8877311913287045
  0.4481669927320127  0.2234266103840312  0.6395151450890992
  0.2214821951768968  0.4328301637773748  0.3997840770408843
  0.1126817539985936  0.5665709699072892  0.0565852691216762
  0.8861753486240573  0.4406704008532785  0.8210300352480573
  0.7749092070535397  0.5538157354410203  0.6107043836641779
  0.5532491982298353  0.4429847297580380  0.3857562101501273
  0.4483684239356052  0.5597598161420549  0.1403914883336199
  0.2314254538754383  0.4500336239133844  0.8790333145333733
  0.1035335803041022  0.5494802672759320  0.5780502348397860
  0.8848808502169803  0.4363971745353012  0.3172112213991412
  0.7797449315103009  0.5562344186181249  0.1119317871129226
  0.5570752308750500  0.4448985299134876  0.8914122360561549
  0.4481665809344761  0.5574620630538618  0.6395149086571195
  0.1126813349691815  0.8788330469746555  0.0565834026661918
  0.8861742677054991  0.7782270323423077  0.8210298272771013
  0.7816670612587657  0.8914164881198730  0.5694867370120988
  0.5505628451038191  0.7745521446513379  0.3889615765843004
  0.4632978338135416  0.8980095807024142  0.1321354789253988
  0.2164295972541623  0.7745757132499165  0.8135904136787246
  0.1035322160370953  0.8867755667378603  0.5780512126029649
  0.8848774418533552  0.7812061644030095  0.3172109346325769
  0.7817448515292043  0.8910342835284766  0.0678970528588962
  0.5508965083690924  0.7748292266512067  0.8877306407355761
  0.4495654860026406  0.8911441051122253  0.6371678621458940
  0.1235962311778422  0.2281565244417578  0.1261417923655657
  0.2088785385555525  0.7708044235613869  0.3311555838537856
  0.1026492571273394  0.2176852045508753  0.3427352561422694
  0.2407177426552849  0.1050795680029708  0.0630506167070735
  0.7852799725999304  0.2242231060632349  0.8816354601699246
  0.8826580935042045  0.1076908526080871  0.6339586427786799
  0.4385561432164948  0.2176588087883218  0.3282835238971629
  0.5528807346030860  0.1137739087030454  0.0727830659340825
  0.1197427773361355  0.2262320619098759  0.8314168222773191
  0.2268701051947346  0.1184958941973804  0.5871202586288504
  0.7795340657441585  0.2261113446028915  0.3854158141592308
  0.8540710309346693  0.0933981360950398  0.1445926303137028
  0.4511175692755671  0.2258366445663498  0.8232107227699998
  0.5474060579843680  0.1064201569710690  0.5763526457891786
  0.0924946420532393  0.5303750720818599  0.3945237741774577
  0.2407140415506959  0.4683566669652421  0.0630517690266856
  0.7791654741491811  0.5559438477280523  0.8594633267667930
  0.8849216367419857  0.4383254019259866  0.6351118928146207
  0.4385571803003359  0.5536169793792212  0.3282831337438736
  0.5531088967831366  0.4429154924454437  0.0792240441699121
  0.1082882500642341  0.5583680414783743  0.8700472526403189
  0.2268699532041012  0.4410968432048392  0.5871192195093897
  0.7731292655086506  0.5529259405309830  0.3396369474586223
  0.8977601906093540  0.4428133411281152  0.1286201001299503
  0.4511168650972479  0.5580013391048269  0.8232107099744113
  0.5527101842320334  0.4427159355825410  0.5740318975984522
  0.0924889742163870  0.8948420334795202  0.3945247326026049
  0.2301206956636221  0.7814227556677551  0.1143737173297197
  0.7852789881446327  0.8937791881716208  0.8816349241559607
  0.8849200152740622  0.7793190565768953  0.6351119944789829
  0.4785076211621373  0.9056131015349891  0.3129964326092960
  0.5528794176267411  0.7718273691536410  0.0727823066390343
  0.1082873188358633  0.8826416906073717  0.8700461162911424
  0.2130831269487956  0.7729033540138559  0.6260660187933880
  0.7795328827571666  0.8861464426234846  0.3854154472608329
  0.8977600554535883  0.7876718656128645  0.1286198552890738
  0.4506813054549639  0.8917013694297395  0.8235660931316247
  0.5474048886734622  0.7737073962914778  0.5763520940779969
 
             NaN             NaN             NaN
             NaN             NaN             NaN
             NaN             NaN             NaN
             NaN             NaN             NaN
             NaN             NaN             NaN
             NaN             NaN             NaN
             NaN             NaN             NaN
             NaN             NaN             NaN
             NaN             NaN             NaN
             NaN             NaN             NaN
             NaN             NaN             NaN
             NaN             NaN             NaN
             NaN             NaN             NaN
             NaN             NaN             NaN
             NaN             NaN             NaN
             NaN             NaN             NaN
             NaN             NaN             NaN
             NaN             NaN             NaN
             NaN             NaN             NaN
             NaN             NaN             NaN
             NaN             NaN             NaN
             NaN             NaN             NaN
             NaN             NaN             NaN
             NaN             NaN             NaN
             NaN             NaN             NaN
             NaN             NaN             NaN
             NaN             NaN             NaN
             NaN             NaN             NaN
             NaN             NaN             NaN
             NaN             NaN             NaN
             NaN             NaN             NaN
             NaN             NaN             NaN
             NaN             NaN             NaN
             NaN             NaN             NaN
             NaN             NaN             NaN
             NaN             NaN             NaN
             NaN             NaN             NaN
             NaN             NaN             NaN
             NaN             NaN             NaN
             NaN             NaN             NaN
             NaN             NaN             NaN
             NaN             NaN             NaN
             NaN             NaN             NaN
             NaN             NaN             NaN
             NaN             NaN             NaN
             NaN             NaN             NaN
             NaN             NaN             NaN
             NaN             NaN             NaN
             NaN             NaN             NaN
             NaN             NaN             NaN
             NaN             NaN             NaN
             NaN             NaN             NaN
             NaN             NaN             NaN
             NaN             NaN             NaN
             NaN             NaN             NaN
             NaN             NaN             NaN
             NaN             NaN             NaN
             NaN             NaN             NaN
             NaN             NaN             NaN
             NaN             NaN             NaN
             NaN             NaN             NaN
             NaN             NaN             NaN
             NaN             NaN             NaN
             NaN             NaN             NaN
             NaN             NaN             NaN
             NaN             NaN             NaN
             NaN             NaN             NaN
             NaN             NaN             NaN
             NaN             NaN             NaN
             NaN             NaN             NaN
             NaN             NaN             NaN
             NaN             NaN             NaN
