Al   Hf   N                             
   1.00000000000000     
     9.5180684531938748    0.0130117009243440    0.0162336559133178
    -4.7343347197602981    8.2492162610750697    0.0126864389772271
    -0.0367747321691990    0.0094971886921296   10.1325063085345271
   Al   Hf   N 
    34     2    36
Direct
  0.2283764564236961  0.1224131246044493  0.4070613789186623
  0.8817602949521302  0.1076983669326097  0.8933241358862318
  0.7770836061819111  0.2218789239604106  0.6453933078702718
  0.5629382444598079  0.1173532181800354  0.3950870013769929
  0.4449089772147232  0.2252730431565197  0.1465215907214201
  0.2272509611946845  0.1119931358618942  0.8816231008529485
  0.1086810037744286  0.2220847549244596  0.6495774295733341
  0.8852285310609176  0.1076136211360605  0.3997274595337998
  0.7723224720833457  0.2207284978522139  0.1443980479881972
  0.5552120472414046  0.1124523665283661  0.8952101695508645
  0.4492641590118751  0.2258809388919758  0.6455700979766945
  0.2254972292230235  0.4476417718602193  0.4023931220793244
  0.1043010542307314  0.5512928289090056  0.1385288696145963
  0.8856158440978703  0.4427334379335193  0.8923768408482999
  0.7743961948011702  0.5523984551144565  0.6446034593431946
  0.5558639931486695  0.4447711613887932  0.3933937275340540
  0.4439983006072765  0.5523299810103666  0.1450006343768635
  0.2246617510151836  0.4518835147132805  0.8857685293556088
  0.1054113828853147  0.5460344972585247  0.6398009034864529
  0.8807658305052612  0.4354529198934571  0.3922573317953209
  0.7780217412693915  0.5556794131959535  0.1429081076794887
  0.5556945710045866  0.4443926862145773  0.8940246771476197
  0.4464646054286590  0.5563211664150529  0.6436729199239721
  0.1136170683572999  0.8770439936893197  0.0762180140759057
  0.8789721858132893  0.7720360320760378  0.8890960533284158
  0.7747119357191323  0.8874196547565845  0.6483495709723286
  0.5571111443632404  0.7769933841386916  0.3968028245959871
  0.4544379812992076  0.8948032955311476  0.1411155969676443
  0.2187922382620897  0.7782008096423425  0.8223325845583247
  0.1044306448100940  0.8917410845545604  0.5961451676768945
  0.8787906245266370  0.7748822647182649  0.3987351608793617
  0.7726426764163463  0.8833535641779378  0.1454347552322588
  0.5529244482101419  0.7756946650648260  0.8958803458321327
  0.4552118440177466  0.8938038370419719  0.6428596193055398
  0.1240641211453948  0.2272454758863773  0.1420237040227192
  0.2283432248897839  0.7695820979378496  0.3705178935868503
  0.1092977417779721  0.2214405893138007  0.3542662910379590
  0.2357325912652328  0.1001139743202870  0.0711484828081552
  0.7757999951096153  0.2220775516240536  0.8340698094609991
  0.8868407941677177  0.1091429494778779  0.5904138204734366
  0.4455856229435895  0.2218161442100168  0.3390258497083636
  0.5555203435893219  0.1145135739330456  0.0834649404934922
  0.1085508721493227  0.2224414648999229  0.8427473326765238
  0.2278856115633587  0.1207731337409399  0.5993081483119127
  0.7774806470168159  0.2201365705310536  0.3345986163447350
  0.8711603520318931  0.1016404631738865  0.0826328621355188
  0.4487180059235953  0.2250166832227620  0.8328785004403088
  0.5573405489124852  0.1127369647370813  0.5848701701627235
  0.0890647981336059  0.5171354607909748  0.3252411261341379
  0.2313568225155080  0.4687906857459083  0.0707055280984576
  0.7748131724170335  0.5523535420908630  0.8330846860872612
  0.8861680125828499  0.4424991815061148  0.5823433992177058
  0.4460570940235371  0.5563460691257163  0.3361694122519410
  0.5594007906947596  0.4463308459397126  0.0827372949214649
  0.1039337218006153  0.5504918334902129  0.8291614964821576
  0.2225564459614020  0.4419698945051351  0.5919072316534582
  0.7781254469213152  0.5555101876807385  0.3340957303894143
  0.8854180750168368  0.4422570550012352  0.0810972374691517
  0.4461157847923616  0.5565035223737738  0.8323963649462485
  0.5556406213931098  0.4444355946653999  0.5834534893379555
  0.1019803113855673  0.9001011938863854  0.3952560635527931
  0.2240883405027247  0.7773688239534877  0.1351273628507101
  0.7736890643782388  0.8878937766651305  0.8361577974855123
  0.8758069100006765  0.7708738241568867  0.5916275616576669
  0.4788547037303417  0.9091600328487743  0.3291152230865961
  0.5550938292125025  0.7745648040365154  0.0843187493538409
  0.1058116686300821  0.8840405212981537  0.8608553147264928
  0.2222853935435296  0.7792980143390338  0.6166374717740482
  0.7775727248986328  0.8880689429764459  0.3355252919071887
  0.8851682340280860  0.7752418404123347  0.0823768403168046
  0.4474513458774041  0.8913874843942011  0.8343595358549649
  0.5575742379663069  0.7780959061864294  0.5866317875701270
 
             NaN             NaN             NaN
             NaN             NaN             NaN
             NaN             NaN             NaN
             NaN             NaN             NaN
             NaN             NaN             NaN
             NaN             NaN             NaN
             NaN             NaN             NaN
             NaN             NaN             NaN
             NaN             NaN             NaN
             NaN             NaN             NaN
             NaN             NaN             NaN
             NaN             NaN             NaN
             NaN             NaN             NaN
             NaN             NaN             NaN
             NaN             NaN             NaN
             NaN             NaN             NaN
             NaN             NaN             NaN
             NaN             NaN             NaN
             NaN             NaN             NaN
             NaN             NaN             NaN
             NaN             NaN             NaN
             NaN             NaN             NaN
             NaN             NaN             NaN
             NaN             NaN             NaN
             NaN             NaN             NaN
             NaN             NaN             NaN
             NaN             NaN             NaN
             NaN             NaN             NaN
             NaN             NaN             NaN
             NaN             NaN             NaN
             NaN             NaN             NaN
             NaN             NaN             NaN
             NaN             NaN             NaN
             NaN             NaN             NaN
             NaN             NaN             NaN
             NaN             NaN             NaN
             NaN             NaN             NaN
             NaN             NaN             NaN
             NaN             NaN             NaN
             NaN             NaN             NaN
             NaN             NaN             NaN
             NaN             NaN             NaN
             NaN             NaN             NaN
             NaN             NaN             NaN
             NaN             NaN             NaN
             NaN             NaN             NaN
             NaN             NaN             NaN
             NaN             NaN             NaN
             NaN             NaN             NaN
             NaN             NaN             NaN
             NaN             NaN             NaN
             NaN             NaN             NaN
             NaN             NaN             NaN
             NaN             NaN             NaN
             NaN             NaN             NaN
             NaN             NaN             NaN
             NaN             NaN             NaN
             NaN             NaN             NaN
             NaN             NaN             NaN
             NaN             NaN             NaN
             NaN             NaN             NaN
             NaN             NaN             NaN
             NaN             NaN             NaN
             NaN             NaN             NaN
             NaN             NaN             NaN
             NaN             NaN             NaN
             NaN             NaN             NaN
             NaN             NaN             NaN
             NaN             NaN             NaN
             NaN             NaN             NaN
             NaN             NaN             NaN
             NaN             NaN             NaN
