Al   Hf   N                             
   1.00000000000000     
     9.4949806848396907    0.0114726375586073    0.0049985196169599
    -4.7573141995018746    8.2184212621629946    0.0022780999063386
    -0.1126866812080127   -0.0679273924417512   10.4132286362607420
   Al   Hf   N 
    34     2    36
Direct
  0.2207236973710991  0.1205571781770729  0.4016239214675892
  0.8837224138418946  0.1081465545865754  0.8210382364586479
  0.7825039661137865  0.2245386987345768  0.5704702350883508
  0.5515660189869891  0.1083154620847182  0.3903500936812137
  0.4479337620881694  0.2171031404252588  0.1410113504233692
  0.2298830837612797  0.1126014468658312  0.8802539391534339
  0.1168730361941570  0.2247268489512777  0.6446948698726160
  0.8699928744405483  0.1012806165220539  0.3260832573725523
  0.7828220121984586  0.2247958580074183  0.0692330157771508
  0.5515631081298409  0.1078805163489633  0.8887902950431084
  0.4465702868629648  0.2198242712602507  0.6374407668150113
  0.2207246340018401  0.4327349096076318  0.4016247447761145
  0.1117169009526933  0.5664775872174701  0.0584199232691986
  0.8851507470605000  0.4418330822036651  0.8188146521765489
  0.7756829059555699  0.5541321998482829  0.5669233872048736
  0.5550704473704826  0.4438197652973486  0.3363091017512119
  0.4479375368890146  0.5634143855300522  0.1410099069709219
  0.2298844304844962  0.4498497952349965  0.8802544245756039
  0.1018301292281762  0.5492792858602584  0.5791554115023843
  0.8849573740898933  0.4396108481944623  0.3179557778954276
  0.7793412215743203  0.5559604525668433  0.0722247646260286
  0.5600233617645713  0.4462946410634459  0.8365585900404113
  0.4465678307755923  0.5593255564243691  0.6374403969910105
  0.1117164886793915  0.8778193791901643  0.0584204294995985
  0.8851480472414295  0.7758870572829224  0.8188146910685177
  0.7825019270951685  0.8905455950216137  0.5704710936692123
  0.5515628123361651  0.7758219466570040  0.3903521973530033
  0.4638742556598672  0.8982284019360094  0.1330890431071552
  0.2164385458368727  0.7745036349324010  0.8142652694374277
  0.1018306440991381  0.8851322248457691  0.5791556119340413
  0.8849616715074688  0.7779187425936627  0.3179551884737677
  0.7828177256178748  0.8906009401154620  0.0692355798576116
  0.5515606102875168  0.7762504572184525  0.8887910762318185
  0.4498605090366681  0.8912203601856561  0.6380086284732727
  0.1243916995195136  0.2284963508831481  0.1271719815509016
  0.2096551901447725  0.7711019273100277  0.3320147468994534
  0.1031455205434497  0.2178681185724116  0.3438509704731345
  0.2407302908545432  0.1044666476542204  0.0637133906151064
  0.7859139075059360  0.2255775030494362  0.8819172394486756
  0.8826233768217335  0.1075938973779529  0.6346607380164073
  0.4353154634820910  0.2112389077994052  0.3299294590388087
  0.5538453587567815  0.1131463796945198  0.0728241247668180
  0.1202139494802523  0.2263997936659834  0.8321502213167022
  0.2249951635992389  0.1167129471530970  0.5880352818004937
  0.7804595380916695  0.2274903723436310  0.3854448860079813
  0.8547854062910787  0.0936701870084633  0.1452363389546747
  0.4478685071691899  0.2190002125770860  0.8234011493281130
  0.5480936542557870  0.1054406903104024  0.5764881852181531
  0.0925927809126463  0.5310005400039728  0.3952260237266358
  0.2407426558492460  0.4688356851903208  0.0637158632260721
  0.7796660471162369  0.5561247550020596  0.8844967990603294
  0.8822664190563145  0.4413117160423425  0.6350556209029321
  0.4353123049675247  0.5566648105337961  0.3299294520676312
  0.5614964490405043  0.4470293478615091  0.1256221972998475
  0.1063720650477151  0.5582201855175555  0.8712038632479775
  0.2249959248684874  0.4408465640815322  0.5880362865044901
  0.7793025105919185  0.5559445445197682  0.3796900861331096
  0.8946360478806739  0.4457001048327598  0.1299484467105430
  0.4478673783504874  0.5614533961204202  0.8234014531817806
  0.5559939004126164  0.4442788113782399  0.6079368857515703
  0.0926037869289971  0.8941803155468406  0.3952283880525158
  0.2306903277559371  0.7816243751792058  0.1155060692958969
  0.7859128092013279  0.8929212637854889  0.8819183834558331
  0.8822647155583141  0.7735190867208814  0.6350555187286417
  0.4792227998018674  0.9059083666448373  0.3136610163636675
  0.5538449970506178  0.7732655095221190  0.0728259336185815
  0.1063720940424275  0.8807370704465924  0.8712050159686129
  0.2136260826536898  0.7730945565922198  0.6268286551206259
  0.7804600613565000  0.8855534959611546  0.3854471015545897
  0.8946317788559313  0.7814951624915594  0.1299477743036945
  0.4507026859759691  0.8916445180617103  0.8242814367326190
  0.5480923084655984  0.7752172992404596  0.5764890093520378
 
             NaN             NaN             NaN
             NaN             NaN             NaN
             NaN             NaN             NaN
             NaN             NaN             NaN
             NaN             NaN             NaN
             NaN             NaN             NaN
             NaN             NaN             NaN
             NaN             NaN             NaN
             NaN             NaN             NaN
             NaN             NaN             NaN
             NaN             NaN             NaN
             NaN             NaN             NaN
             NaN             NaN             NaN
             NaN             NaN             NaN
             NaN             NaN             NaN
             NaN             NaN             NaN
             NaN             NaN             NaN
             NaN             NaN             NaN
             NaN             NaN             NaN
             NaN             NaN             NaN
             NaN             NaN             NaN
             NaN             NaN             NaN
             NaN             NaN             NaN
             NaN             NaN             NaN
             NaN             NaN             NaN
             NaN             NaN             NaN
             NaN             NaN             NaN
             NaN             NaN             NaN
             NaN             NaN             NaN
             NaN             NaN             NaN
             NaN             NaN             NaN
             NaN             NaN             NaN
             NaN             NaN             NaN
             NaN             NaN             NaN
             NaN             NaN             NaN
             NaN             NaN             NaN
             NaN             NaN             NaN
             NaN             NaN             NaN
             NaN             NaN             NaN
             NaN             NaN             NaN
             NaN             NaN             NaN
             NaN             NaN             NaN
             NaN             NaN             NaN
             NaN             NaN             NaN
             NaN             NaN             NaN
             NaN             NaN             NaN
             NaN             NaN             NaN
             NaN             NaN             NaN
             NaN             NaN             NaN
             NaN             NaN             NaN
             NaN             NaN             NaN
             NaN             NaN             NaN
             NaN             NaN             NaN
             NaN             NaN             NaN
             NaN             NaN             NaN
             NaN             NaN             NaN
             NaN             NaN             NaN
             NaN             NaN             NaN
             NaN             NaN             NaN
             NaN             NaN             NaN
             NaN             NaN             NaN
             NaN             NaN             NaN
             NaN             NaN             NaN
             NaN             NaN             NaN
             NaN             NaN             NaN
             NaN             NaN             NaN
             NaN             NaN             NaN
             NaN             NaN             NaN
             NaN             NaN             NaN
             NaN             NaN             NaN
             NaN             NaN             NaN
             NaN             NaN             NaN
