Al   Hf   N                             
   1.00000000000000     
     9.5281131002982207    0.0074315609961122    0.0239579024103567
    -4.7704347777515395    8.2403477948422825   -0.0100740648057980
    -0.0726424750014921   -0.0273551906149417   10.2714763320923499
   Al   Hf   N 
    34     2    36
Direct
  0.2240895635848403  0.1225215033464076  0.4016078481411273
  0.8849827620035932  0.1080368726663300  0.8263156572923218
  0.7795019176897120  0.2222350842399089  0.5723671057437673
  0.5620471533136135  0.1090033589158818  0.3245810681578310
  0.4401881140250598  0.2163138875452620  0.1425288279162739
  0.2332853390417469  0.1127481473373309  0.8832647151294376
  0.1180601503312506  0.2248047366334129  0.6491801159104905
  0.8743390242122142  0.1017056977647469  0.3297999652872648
  0.7720728051197493  0.2169184262889017  0.0733488104497697
  0.5618831902892886  0.1071618528460541  0.8220244251196182
  0.4457002313009342  0.2215820642635997  0.6407852992958933
  0.2159073038064452  0.4299819719369227  0.4064157227842671
  0.1021836950912858  0.5614104130338103  0.0582740725314826
  0.8835830265631415  0.4416599451061455  0.8216647210940250
  0.7770361407099223  0.5542529217709886  0.5707473285125615
  0.5533015493151576  0.4479946753775939  0.3248098180378066
  0.4580963355454403  0.5656009550646046  0.0678685343329540
  0.2276473169690909  0.4507859180637529  0.8771995106236914
  0.1042056635040912  0.5514905690711113  0.5870850989856644
  0.8862793214371362  0.4447520756733120  0.3209882018158443
  0.7761736982724605  0.5532036991389798  0.0727369500163833
  0.5630520541090097  0.4515516799112411  0.8219919882177856
  0.4558086047134846  0.5617175017069339  0.5784527237038741
  0.1033713476163160  0.8758057172120020  0.0589434755478229
  0.8859705378016641  0.7753215600771824  0.8215656430560955
  0.7801552236668091  0.8892501069278775  0.5728561851931285
  0.5581185770313030  0.7747517483353946  0.3229921734635905
  0.4475199580090591  0.8892754624990659  0.0671157284986973
  0.2246589299917253  0.7796896754898127  0.8161717274428374
  0.1051551332891572  0.8869320230879557  0.5821065176553237
  0.8868030843169976  0.7733789158702910  0.3205929164254428
  0.7726273382687229  0.8862312010000684  0.0741351435846673
  0.5606200042019946  0.7807196042727907  0.8203372200395463
  0.4516257154918811  0.8908994725072560  0.5737320310443426
  0.1220435385634283  0.2315517287359946  0.1254201388750426
  0.2077100628936055  0.7691771123655118  0.3243741468234795
  0.1038808504951354  0.2184423030882972  0.3469987184227432
  0.2366195236285815  0.1002832981668153  0.0678561780625913
  0.7794127293098733  0.2213348018053220  0.8851454228210687
  0.8865948805177855  0.1090453299633423  0.6357997127224418
  0.4367653450918770  0.2156049732113228  0.3358530502477613
  0.5558347306871416  0.1053876878113969  0.1334304504467412
  0.1191997198774521  0.2243003080757478  0.8401296422070760
  0.2277432021547268  0.1186166731733959  0.5903298579438764
  0.7768278163735171  0.2244391987826844  0.3860596047625921
  0.8564253611302617  0.0929308816063838  0.1455168615457315
  0.4483723133668753  0.2220638697677466  0.8314649195890536
  0.5615250772636811  0.1078353029063378  0.6320938484783729
  0.0944141080260017  0.5326025526590880  0.3992485228923409
  0.2345099014990862  0.4727302336527039  0.0699787355659942
  0.7791879677396174  0.5554686153959720  0.8850398225337706
  0.8829225914331614  0.4413071415599014  0.6359531153873893
  0.4453958872384364  0.5562301484298777  0.3879531672592405
  0.5575707962522641  0.4492427883179378  0.1330898051066524
  0.1057880226502714  0.5591728874394569  0.8679959339570470
  0.2263212934976623  0.4436776861605106  0.6011587389514937
  0.7722515793755651  0.5517359729380126  0.3836919208541519
  0.8872530525416458  0.4405600916914092  0.1295631688028016
  0.4582596552462397  0.5630958364888243  0.8776316277761508
  0.5625107486826666  0.4512724151236480  0.6329494595695124
  0.0965869890957404  0.8956437168272958  0.3950024354362526
  0.2236092647359378  0.7790696375709678  0.1138717017992004
  0.7796854177326876  0.8895823064447274  0.8851611653076670
  0.8855282070986915  0.7749797438831973  0.6352258022725171
  0.4599808754123327  0.8932507930989906  0.3868717868954020
  0.5540317517799989  0.7767028768421316  0.1342472355996414
  0.1070911393317709  0.8814179484751014  0.8698272476973533
  0.2254035523880254  0.7801643542683009  0.6267347741407374
  0.7752296188954286  0.8815414208295039  0.3859849814125124
  0.8882659370984911  0.7782135000643415  0.1293678131667688
  0.4463304711326232  0.8874326230057662  0.8790348694152024
  0.5600602364388069  0.7807116037692539  0.6344314407149105
 
             NaN             NaN             NaN
             NaN             NaN             NaN
             NaN             NaN             NaN
             NaN             NaN             NaN
             NaN             NaN             NaN
             NaN             NaN             NaN
             NaN             NaN             NaN
             NaN             NaN             NaN
             NaN             NaN             NaN
             NaN             NaN             NaN
             NaN             NaN             NaN
             NaN             NaN             NaN
             NaN             NaN             NaN
             NaN             NaN             NaN
             NaN             NaN             NaN
             NaN             NaN             NaN
             NaN             NaN             NaN
             NaN             NaN             NaN
             NaN             NaN             NaN
             NaN             NaN             NaN
             NaN             NaN             NaN
             NaN             NaN             NaN
             NaN             NaN             NaN
             NaN             NaN             NaN
             NaN             NaN             NaN
             NaN             NaN             NaN
             NaN             NaN             NaN
             NaN             NaN             NaN
             NaN             NaN             NaN
             NaN             NaN             NaN
             NaN             NaN             NaN
             NaN             NaN             NaN
             NaN             NaN             NaN
             NaN             NaN             NaN
             NaN             NaN             NaN
             NaN             NaN             NaN
             NaN             NaN             NaN
             NaN             NaN             NaN
             NaN             NaN             NaN
             NaN             NaN             NaN
             NaN             NaN             NaN
             NaN             NaN             NaN
             NaN             NaN             NaN
             NaN             NaN             NaN
             NaN             NaN             NaN
             NaN             NaN             NaN
             NaN             NaN             NaN
             NaN             NaN             NaN
             NaN             NaN             NaN
             NaN             NaN             NaN
             NaN             NaN             NaN
             NaN             NaN             NaN
             NaN             NaN             NaN
             NaN             NaN             NaN
             NaN             NaN             NaN
             NaN             NaN             NaN
             NaN             NaN             NaN
             NaN             NaN             NaN
             NaN             NaN             NaN
             NaN             NaN             NaN
             NaN             NaN             NaN
             NaN             NaN             NaN
             NaN             NaN             NaN
             NaN             NaN             NaN
             NaN             NaN             NaN
             NaN             NaN             NaN
             NaN             NaN             NaN
             NaN             NaN             NaN
             NaN             NaN             NaN
             NaN             NaN             NaN
             NaN             NaN             NaN
             NaN             NaN             NaN
