Al   Hf   N                             
   1.00000000000000     
     9.5308114430571695    0.0075282977706593    0.0240957859598659
    -4.7689622300755179    8.2316905295314626   -0.0101199028696479
    -0.0839129351875111   -0.0235304868568551   10.3028212139407369
   Al   Hf   N 
    34     2    36
Direct
  0.2225749136220947  0.1223399189274288  0.4031109378855179
  0.8857988296372297  0.1079705294996495  0.8246587694606003
  0.7815911588259062  0.2233758521993718  0.5742820117500862
  0.5594935373054181  0.1114940777408728  0.3445318790377398
  0.4423068082897473  0.2138443689727885  0.1420932881803096
  0.2321168541593760  0.1131738997064362  0.8833262879896293
  0.1186244601637664  0.2255519257413300  0.6477092448192961
  0.8726140902622808  0.1013884500227928  0.3294468888327270
  0.7732051120409008  0.2175125063160410  0.0730924524822015
  0.5611218555004559  0.1081326230646158  0.8310482884712250
  0.4454765737864271  0.2203183105369134  0.6417855838896793
  0.2156486418883106  0.4306287180660597  0.4053341991441459
  0.1018973142347656  0.5603929717968649  0.0576206993470755
  0.8847407783243517  0.4426058099731628  0.8206164065613175
  0.7763283013285908  0.5539047048551430  0.5701463522123543
  0.5527371272829263  0.4482556712568972  0.3229304840387894
  0.4581283671812746  0.5644792556731545  0.0675112219750987
  0.2271193986127734  0.4496059156936001  0.8785289593108759
  0.1044464468914515  0.5522405716210207  0.5845545230914624
  0.8863572320936592  0.4460931228994314  0.3200233549567618
  0.7760034290341719  0.5529210552688645  0.0718918993007286
  0.5629509504006796  0.4516654564824520  0.8210848040430585
  0.4556040542424857  0.5607275295741915  0.5766675316468464
  0.1027888813484441  0.8756045710247652  0.0577777814118256
  0.8856222770717717  0.7753605085982378  0.8208988740540888
  0.7796427019998271  0.8888535994951021  0.5718506004171300
  0.5573322089260803  0.7746744899250246  0.3218590282365798
  0.4471127757353323  0.8879811493061242  0.0653186995970352
  0.2233772077147763  0.7785805403594950  0.8157257207955790
  0.1046078485832519  0.8864144874814349  0.5818943336190583
  0.8862795163937583  0.7730557562881530  0.3197842807088003
  0.7730745793837180  0.8873180873812805  0.0735057102682774
  0.5604864295813455  0.7794946979946947  0.8193932190120119
  0.4496793232652734  0.8881952032220558  0.5760128978088483
  0.1246458211137034  0.2309256147536747  0.1295803079570450
  0.2073068300604703  0.7709007401480704  0.3215793264236959
  0.1017827777719831  0.2174464018909516  0.3491654617793347
  0.2368744878807059  0.1006021057701785  0.0677376234298120
  0.7823365962612061  0.2227084280088131  0.8840054387212996
  0.8868276506062326  0.1084841945371238  0.6352135838576605
  0.4350642247937964  0.2148178770181316  0.3356925609178967
  0.5554763507583788  0.1056381905620946  0.1219673365034431
  0.1198394066675355  0.2249210349173384  0.8371890544890510
  0.2278136942091655  0.1183938552101843  0.5902529533217811
  0.7788505702785683  0.2265386729704700  0.3877302428847722
  0.8582547798476818  0.0943782212350968  0.1457549655580229
  0.4472799603367456  0.2215169804592007  0.8308045610551226
  0.5607233328680812  0.1085119904713664  0.6261855591798854
  0.0950853447050470  0.5344867632637160  0.3971331171709487
  0.2336220770514162  0.4703969346012130  0.0691334446774126
  0.7790341687448870  0.5551078881256657  0.8844317751203989
  0.8842298855096915  0.4428002107662115  0.6355100054362034
  0.4452003697977676  0.5559320230944093  0.3866423622601808
  0.5576435167197603  0.4481121094429888  0.1328935218770243
  0.1058324839787877  0.5586540763896015  0.8685295521735904
  0.2260404347569193  0.4439001505083339  0.5978021051361848
  0.7709562474613788  0.5511029441270550  0.3834296160554188
  0.8877904382210774  0.4411853962882111  0.1294230204139454
  0.4579504726100581  0.5621698530274898  0.8779159457591670
  0.5620385882747381  0.4506221524021927  0.6328474732428473
  0.0957840497965221  0.8954924792864892  0.3953007780619909
  0.2230944503615827  0.7783240052020444  0.1123315457070009
  0.7795209354022474  0.8897478741682981  0.8847092699440381
  0.8850374978209651  0.7747824418626322  0.6348560029268745
  0.4576385476104288  0.8906498347925701  0.3887929297067713
  0.5538899504466510  0.7761525946993745  0.1335890501462301
  0.1067008966804839  0.8814648838571704  0.8695847221773637
  0.2240442274464996  0.7793492134165848  0.6275041640735370
  0.7741119053583225  0.8811619474260725  0.3852778502306649
  0.8879429045106599  0.7783576791842736  0.1286956488068018
  0.4450141701570117  0.8847759274422569  0.8770470489665760
  0.5599470735277785  0.7792580351901256  0.6341776559714869
 
             NaN             NaN             NaN
             NaN             NaN             NaN
             NaN             NaN             NaN
             NaN             NaN             NaN
             NaN             NaN             NaN
             NaN             NaN             NaN
             NaN             NaN             NaN
             NaN             NaN             NaN
             NaN             NaN             NaN
             NaN             NaN             NaN
             NaN             NaN             NaN
             NaN             NaN             NaN
             NaN             NaN             NaN
             NaN             NaN             NaN
             NaN             NaN             NaN
             NaN             NaN             NaN
             NaN             NaN             NaN
             NaN             NaN             NaN
             NaN             NaN             NaN
             NaN             NaN             NaN
             NaN             NaN             NaN
             NaN             NaN             NaN
             NaN             NaN             NaN
             NaN             NaN             NaN
             NaN             NaN             NaN
             NaN             NaN             NaN
             NaN             NaN             NaN
             NaN             NaN             NaN
             NaN             NaN             NaN
             NaN             NaN             NaN
             NaN             NaN             NaN
             NaN             NaN             NaN
             NaN             NaN             NaN
             NaN             NaN             NaN
             NaN             NaN             NaN
             NaN             NaN             NaN
             NaN             NaN             NaN
             NaN             NaN             NaN
             NaN             NaN             NaN
             NaN             NaN             NaN
             NaN             NaN             NaN
             NaN             NaN             NaN
             NaN             NaN             NaN
             NaN             NaN             NaN
             NaN             NaN             NaN
             NaN             NaN             NaN
             NaN             NaN             NaN
             NaN             NaN             NaN
             NaN             NaN             NaN
             NaN             NaN             NaN
             NaN             NaN             NaN
             NaN             NaN             NaN
             NaN             NaN             NaN
             NaN             NaN             NaN
             NaN             NaN             NaN
             NaN             NaN             NaN
             NaN             NaN             NaN
             NaN             NaN             NaN
             NaN             NaN             NaN
             NaN             NaN             NaN
             NaN             NaN             NaN
             NaN             NaN             NaN
             NaN             NaN             NaN
             NaN             NaN             NaN
             NaN             NaN             NaN
             NaN             NaN             NaN
             NaN             NaN             NaN
             NaN             NaN             NaN
             NaN             NaN             NaN
             NaN             NaN             NaN
             NaN             NaN             NaN
             NaN             NaN             NaN
