Al   Hf   N                             
   1.00000000000000     
     9.5230388418745466    0.0096962850133825    0.0094150779045845
    -4.7702801526954435    8.2235260087984781    0.0065589411083392
    -0.1242439238980288   -0.0508437713097658   10.3895108688215476
   Al   Hf   N 
    34     2    36
Direct
  0.2242362781459152  0.1218297586410102  0.3986180497705968
  0.8854156109687514  0.1046301147528574  0.8201857709744195
  0.7704291589549365  0.2216046497420743  0.6400090906948254
  0.5574275718974643  0.1133949029783268  0.3877548530544913
  0.4487172563958489  0.2233888180895431  0.1396909470275938
  0.2315249656323355  0.1109103400604495  0.8787427363506306
  0.1169828819200074  0.2231624213333533  0.6424531057168013
  0.8755209425357212  0.1025975625103827  0.3238414212652005
  0.7719264185495783  0.2277175732077704  0.1405861073475013
  0.5551633348882106  0.1105772590167514  0.8879544036449494
  0.4474838090140617  0.2240911374723392  0.6379589630543753
  0.2238063972804138  0.4334966928144947  0.3983893093799976
  0.1190906960385361  0.5693513712647065  0.0532100574906802
  0.8777587678311315  0.4385170916572882  0.8840848070104549
  0.7700562013681462  0.5490110844777428  0.6405102764519853
  0.5543160756155839  0.4455554713068246  0.3871842705306949
  0.4491524771204379  0.5585627688253659  0.1388547187370024
  0.2309889635679029  0.4491915143536422  0.8747093846338028
  0.1068245618438815  0.5502117409036111  0.5797225893763219
  0.8725501589021919  0.4371954875954873  0.3947402768061341
  0.7794129035985005  0.5518334235930150  0.1380765564282941
  0.5564725164899783  0.4446506969387051  0.8892632729813705
  0.4492208707088403  0.5581843099264386  0.6379628488460839
  0.1109259426102535  0.8758720097843183  0.0577398399504808
  0.8872682170219753  0.7812749567472551  0.8175637154052355
  0.7824785271300493  0.8921053479580510  0.5679132043556305
  0.5502803648980432  0.7764175997488814  0.3881787274931499
  0.4639216989967868  0.8983957784830394  0.1308797557385803
  0.2150567316827762  0.7733595954635756  0.8110494596810485
  0.1015043949548650  0.8854659119690707  0.5761606058287869
  0.8880327127937808  0.7863384060651890  0.3170120865148929
  0.7819062566019891  0.8894410593393216  0.0671302338526861
  0.5491949139290135  0.7742398026220880  0.8872883619735549
  0.4490533667675517  0.8908659789151095  0.6354672917467850
  0.1283650633700588  0.2288001836764214  0.1241101503638810
  0.2104154052515435  0.7685867669965100  0.3296797874446212
  0.1057627876686255  0.2183999500393501  0.3416550968475615
  0.2419949339826931  0.1021904396421798  0.0627676198206783
  0.7721234634992996  0.2213271272520214  0.8272766236867666
  0.8863089048827789  0.1069439594248700  0.6307879931323396
  0.4406598212325215  0.2199318259049576  0.3292197569525873
  0.5590869175352908  0.1173932337031359  0.0723880302474370
  0.1188245418287823  0.2233638901281296  0.8332462027216815
  0.2273727166151862  0.1175566113868369  0.5863366815575353
  0.7710998658495331  0.2295519544274493  0.3284857153652950
  0.8625311850196906  0.0936098471468248  0.1390836214243959
  0.4493840864446985  0.2240173032014832  0.8230852569762172
  0.5525514293835233  0.1092096228669677  0.5744861477630113
  0.0966485308579528  0.5295879399846626  0.3899824691215988
  0.2423693043492840  0.4689834751930937  0.0593086869374304
  0.7710522426534580  0.5493851259339004  0.8272490889473012
  0.8755603223779546  0.4389721807460825  0.5824955615187971
  0.4407609379843230  0.5555852068705897  0.3277354507450287
  0.5591345467499982  0.4463803338320764  0.0766543775666304
  0.1072938374076475  0.5554179171954918  0.8615497229144264
  0.2274150451042349  0.4403794259640359  0.5875067657247522
  0.7725546768316264  0.5522017352112989  0.3264765775166237
  0.8882968942546989  0.4447489427888286  0.0726678855972569
  0.4509468084995532  0.5579998795305616  0.8221104074856903
  0.5543525461034311  0.4447415610760827  0.5740875861389714
  0.0946827182763747  0.8948289709872138  0.3927976895005485
  0.2320705732995099  0.7811106614592673  0.1127133767160897
  0.7835931100487072  0.8912878961536582  0.8810795410334697
  0.8854737672292345  0.7811778313482978  0.6329798696880462
  0.4786208805924530  0.9078678078442947  0.3126664656193870
  0.5533024913295207  0.7723539393693734  0.0727985899523846
  0.1057508411375697  0.8787068920215515  0.8708079838923043
  0.2136419497132125  0.7743803700106486  0.6238655309950235
  0.7795883997084154  0.8878179707094952  0.3837162991377918
  0.8975453512102798  0.7865290466637354  0.1286434054013347
  0.4489576660522142  0.8912091310809824  0.8234367930556309
  0.5482849523669685  0.7750491950077740  0.5757903780280013
 
             NaN             NaN             NaN
             NaN             NaN             NaN
             NaN             NaN             NaN
             NaN             NaN             NaN
             NaN             NaN             NaN
             NaN             NaN             NaN
             NaN             NaN             NaN
             NaN             NaN             NaN
             NaN             NaN             NaN
             NaN             NaN             NaN
             NaN             NaN             NaN
             NaN             NaN             NaN
             NaN             NaN             NaN
             NaN             NaN             NaN
             NaN             NaN             NaN
             NaN             NaN             NaN
             NaN             NaN             NaN
             NaN             NaN             NaN
             NaN             NaN             NaN
             NaN             NaN             NaN
             NaN             NaN             NaN
             NaN             NaN             NaN
             NaN             NaN             NaN
             NaN             NaN             NaN
             NaN             NaN             NaN
             NaN             NaN             NaN
             NaN             NaN             NaN
             NaN             NaN             NaN
             NaN             NaN             NaN
             NaN             NaN             NaN
             NaN             NaN             NaN
             NaN             NaN             NaN
             NaN             NaN             NaN
             NaN             NaN             NaN
             NaN             NaN             NaN
             NaN             NaN             NaN
             NaN             NaN             NaN
             NaN             NaN             NaN
             NaN             NaN             NaN
             NaN             NaN             NaN
             NaN             NaN             NaN
             NaN             NaN             NaN
             NaN             NaN             NaN
             NaN             NaN             NaN
             NaN             NaN             NaN
             NaN             NaN             NaN
             NaN             NaN             NaN
             NaN             NaN             NaN
             NaN             NaN             NaN
             NaN             NaN             NaN
             NaN             NaN             NaN
             NaN             NaN             NaN
             NaN             NaN             NaN
             NaN             NaN             NaN
             NaN             NaN             NaN
             NaN             NaN             NaN
             NaN             NaN             NaN
             NaN             NaN             NaN
             NaN             NaN             NaN
             NaN             NaN             NaN
             NaN             NaN             NaN
             NaN             NaN             NaN
             NaN             NaN             NaN
             NaN             NaN             NaN
             NaN             NaN             NaN
             NaN             NaN             NaN
             NaN             NaN             NaN
             NaN             NaN             NaN
             NaN             NaN             NaN
             NaN             NaN             NaN
             NaN             NaN             NaN
             NaN             NaN             NaN
