Al   Hf   N                             
   1.00000000000000     
     9.5029239321370600    0.0107828530383125    0.0124074967868294
    -4.7429724113871945    8.2284688293769275    0.0086212619994968
    -0.0146347733389148   -0.0032572941942361   10.1138773346908373
   Al   Hf   N 
    34     2    36
Direct
  0.2234995593232583  0.1155606323270462  0.4020094100856042
  0.8821817965548533  0.1075253255000703  0.8928169953783822
  0.7770215123912010  0.2220627874372241  0.6451366323094874
  0.5619996562163223  0.1164145681880129  0.3949788605100721
  0.4425330278884090  0.2254034960178970  0.1458849730455114
  0.2245395534872259  0.1069364546430478  0.8860596022665774
  0.1089692871119041  0.2205084832092084  0.6471416340467044
  0.8845687976150742  0.1079813940636924  0.3994464019547905
  0.7715478221109890  0.2204498531198311  0.1439611965499665
  0.5551563683847291  0.1133309103693776  0.8952603275880122
  0.4468448839147925  0.2235541262987226  0.6432747786442192
  0.2251900646690643  0.4463239887545569  0.4027793148897914
  0.1050954503086459  0.5525309651695380  0.1369520829103976
  0.8851366127717668  0.4428436714191832  0.8922712858387527
  0.7771714439069157  0.5550418736411018  0.6425259162652779
  0.5554956209108539  0.4442423023667672  0.3930248577516693
  0.4433157173920179  0.5507227120889837  0.1450671287426317
  0.2249921887617887  0.4504179673230340  0.8845834775810459
  0.1082752686496633  0.5508787968420990  0.6411412499681859
  0.8815046375677724  0.4360456231099903  0.3921232035220115
  0.7777820228571670  0.5552710301866597  0.1422022299634449
  0.5563977752410025  0.4447612901105558  0.8924068821602305
  0.4468783262235547  0.5564151381431515  0.6434824206555660
  0.1076339458709441  0.8851879677130583  0.1437468667171373
  0.8859833506388100  0.7758918149701444  0.8940626306818729
  0.7766742988759177  0.8874718704148918  0.6466998437794302
  0.5578097561735618  0.7771858801696609  0.3969727557590090
  0.4528482453587301  0.8935677037699605  0.1394956058268377
  0.2202993808651996  0.7774767356461467  0.8524372522578716
  0.1056376879358965  0.8900978570058911  0.6410594895716173
  0.8837190540383020  0.7787328056092662  0.3945129074938265
  0.7715933402594217  0.8836187572178460  0.1453059944209940
  0.5549636083964344  0.7753037714813047  0.8956631758089983
  0.4509012481888490  0.8913093069507667  0.6441918737228676
  0.1252734166897795  0.2295561916329518  0.1419645146118285
  0.2280163646279831  0.7699897674547174  0.3755525376784590
  0.1084313248914697  0.2219723417466994  0.3548231571677221
  0.2305081871331822  0.0933157301469407  0.0713849375250675
  0.7758837571736450  0.2221316572756180  0.8339269691324276
  0.8865299275827638  0.1093225226549137  0.5901921779093087
  0.4449337349741924  0.2206496944052319  0.3389399858506152
  0.5546033265214732  0.1146496143544766  0.0834508650800814
  0.1094501381383282  0.2210667920741116  0.8415479867318538
  0.2232676562056710  0.1124163789047401  0.5910761916198979
  0.7771112829482760  0.2201985807224247  0.3344539764712806
  0.8705510020403437  0.1014923987307768  0.0821847492331358
  0.4461293316144861  0.2235014959546007  0.8317597650830919
  0.5568633216144150  0.1115357897401594  0.5851308563805304
  0.0914663637696975  0.5191777160766549  0.3243579466054527
  0.2314122011900110  0.4692067592745346  0.0692670367860586
  0.7773790097685307  0.5555440221015857  0.8322077909258709
  0.8876270259086070  0.4432061493492512  0.5825160404831990
  0.4459578789140082  0.5566573485042525  0.3368844651290175
  0.5601336295957537  0.4464340181615469  0.0811814627478071
  0.1050764277887950  0.5518973363369284  0.8307138464055157
  0.2226810759430080  0.4422107424776627  0.5925990609150631
  0.7785005352075061  0.5556688140577819  0.3337950012308823
  0.8851909927353034  0.4418758784129651  0.0810470429718109
  0.4466396129039438  0.5564239197806771  0.8318235395474503
  0.5562650594168019  0.4445191793711771  0.5834539820636664
  0.0989285285768133  0.9033946882449939  0.3354620422041208
  0.2237793048022496  0.7771292218533645  0.1208626714561589
  0.7759512766961123  0.8869952466718232  0.8355446677320941
  0.8857078701737251  0.7764392796662776  0.5843489468108416
  0.4765465136107068  0.9066845072160987  0.3281010443833665
  0.5546841263522140  0.7736403682884401  0.0839758005860958
  0.1044960248924554  0.8873098560983195  0.8309671339895175
  0.2221710381114477  0.7799711686752389  0.6064806858392515
  0.7764107195792889  0.8883913299632908  0.3356619747728047
  0.8876747380119383  0.7769925344667428  0.0840655851989922
  0.4473655158438277  0.8907301042911655  0.8360127040225009
  0.5579505136946423  0.7783040799886294  0.5871425536972694
 
             NaN             NaN             NaN
             NaN             NaN             NaN
             NaN             NaN             NaN
             NaN             NaN             NaN
             NaN             NaN             NaN
             NaN             NaN             NaN
             NaN             NaN             NaN
             NaN             NaN             NaN
             NaN             NaN             NaN
             NaN             NaN             NaN
             NaN             NaN             NaN
             NaN             NaN             NaN
             NaN             NaN             NaN
             NaN             NaN             NaN
             NaN             NaN             NaN
             NaN             NaN             NaN
             NaN             NaN             NaN
             NaN             NaN             NaN
             NaN             NaN             NaN
             NaN             NaN             NaN
             NaN             NaN             NaN
             NaN             NaN             NaN
             NaN             NaN             NaN
             NaN             NaN             NaN
             NaN             NaN             NaN
             NaN             NaN             NaN
             NaN             NaN             NaN
             NaN             NaN             NaN
             NaN             NaN             NaN
             NaN             NaN             NaN
             NaN             NaN             NaN
             NaN             NaN             NaN
             NaN             NaN             NaN
             NaN             NaN             NaN
             NaN             NaN             NaN
             NaN             NaN             NaN
             NaN             NaN             NaN
             NaN             NaN             NaN
             NaN             NaN             NaN
             NaN             NaN             NaN
             NaN             NaN             NaN
             NaN             NaN             NaN
             NaN             NaN             NaN
             NaN             NaN             NaN
             NaN             NaN             NaN
             NaN             NaN             NaN
             NaN             NaN             NaN
             NaN             NaN             NaN
             NaN             NaN             NaN
             NaN             NaN             NaN
             NaN             NaN             NaN
             NaN             NaN             NaN
             NaN             NaN             NaN
             NaN             NaN             NaN
             NaN             NaN             NaN
             NaN             NaN             NaN
             NaN             NaN             NaN
             NaN             NaN             NaN
             NaN             NaN             NaN
             NaN             NaN             NaN
             NaN             NaN             NaN
             NaN             NaN             NaN
             NaN             NaN             NaN
             NaN             NaN             NaN
             NaN             NaN             NaN
             NaN             NaN             NaN
             NaN             NaN             NaN
             NaN             NaN             NaN
             NaN             NaN             NaN
             NaN             NaN             NaN
             NaN             NaN             NaN
             NaN             NaN             NaN
