Al   Hf   N                             
   1.00000000000000     
     9.5210570721255170    0.0085959224077411    0.0160929192904887
    -4.7613506358602136    8.2518825866455963   -0.0050611880836799
    -0.0640586032482835   -0.0068027965436384   10.2155142155573095
   Al   Hf   N 
    34     2    36
Direct
  0.2234753283305606  0.1223983149362051  0.3992646116558041
  0.8836243657833787  0.1077311064465171  0.8273437445640682
  0.7797799925773904  0.2229154480295585  0.5725180902121512
  0.5623855771718624  0.1094342284810683  0.3244578050485366
  0.4401818458860539  0.2162982799903412  0.1414704376991197
  0.2342398436568694  0.1117288414781220  0.8839191445403001
  0.1153329924471753  0.2210172565751426  0.6462540451757521
  0.8758143746187794  0.1016844753326679  0.3289199961068554
  0.7736166793500798  0.2180503034286309  0.0726862332364522
  0.5613590996691891  0.1073078469844476  0.8218705504376967
  0.4459764671627461  0.2225916364664689  0.6400787643490434
  0.2218499216886513  0.4399621403001512  0.3535507648975074
  0.1067493693595848  0.5573445977769362  0.0619799748604051
  0.8849524047980737  0.4418638508486754  0.8238157605905257
  0.7770950681948195  0.5544093956518817  0.5721869812672731
  0.5549185847133498  0.4476921644707229  0.3256059477680173
  0.4523186381167360  0.5641065271293095  0.0712637791717008
  0.2303155267394326  0.4539901805542104  0.8293594189840506
  0.1066219281046585  0.5494198669779597  0.5865918047812126
  0.8877777132966563  0.4454746469951611  0.3215018559712366
  0.7760425769210231  0.5528893664956432  0.0737668700254393
  0.5619222902712890  0.4514386857360008  0.8240956909712744
  0.4505379324214597  0.5593370795065223  0.5785039480475591
  0.1039086668811908  0.8765512404559107  0.0595448102241058
  0.8858322157117945  0.7750410315002022  0.8217088895272064
  0.7788896516173687  0.8879664440576753  0.5733382699121865
  0.5588810768940424  0.7758172211056181  0.3228546470785451
  0.4479575753942112  0.8902446124858231  0.0677963930785491
  0.2245082165508185  0.7790515919808727  0.8180479124089534
  0.1053312311075037  0.8863148221871334  0.5822139641949866
  0.8867657277815288  0.7732081636209491  0.3209123597895132
  0.7711670354470438  0.8835983101025709  0.0743862916561628
  0.5597059196747325  0.7801893064012982  0.8218458060630284
  0.4511972883280626  0.8907300035615249  0.5742402433981879
  0.1119406837570033  0.2313733365801781  0.1093586170511448
  0.2076478658148494  0.7688189645969643  0.3234764698207585
  0.1051567017500239  0.2178153967430798  0.3422313981170672
  0.2372640222614830  0.1001602088258036  0.0683323672989166
  0.7779064100404750  0.2210150973868009  0.8839703951961884
  0.8861573762180420  0.1083857652615476  0.6355700633345085
  0.4370437544657813  0.2162497357876102  0.3360165113743921
  0.5567016115444718  0.1062150553896120  0.1330925013892392
  0.1167713402166532  0.2214279874688619  0.8465735320170733
  0.2275017101933665  0.1185554854357635  0.5894710855115513
  0.7776927517273665  0.2243173040684069  0.3854742800259532
  0.8541899425065002  0.0898374449770141  0.1437707702717248
  0.4484122381237113  0.2225188277440232  0.8314142218580307
  0.5611946040704789  0.1080968521789152  0.6311172319201450
  0.0978835061641495  0.5304739115204030  0.4021446943116842
  0.2400766053307137  0.4820146857613941  0.1259324779052653
  0.7789466059997399  0.5555123941134057  0.8851820110562929
  0.8844574946120202  0.4419261658011254  0.6368092347092714
  0.4452228612387876  0.5558044381827778  0.3899935889095005
  0.5566193195170243  0.4493099315980841  0.1333864470289814
  0.1096203828202746  0.5571256552970262  0.8733810937430206
  0.2295505121430721  0.4500234349410757  0.6367561001751415
  0.7729559459803460  0.5517917915176210  0.3845430332623258
  0.8870721023486139  0.4407484886866943  0.1300155586813666
  0.4516835433288465  0.5604371395055366  0.8822772744292678
  0.5616183300492359  0.4521750978456514  0.6336011875797806
  0.0970914251787949  0.8953425246012212  0.3940646375952744
  0.2235652331001215  0.7800664019719017  0.1129658103962248
  0.7789070610970195  0.8885370128362389  0.8849144081693536
  0.8855655552473022  0.7750167694344323  0.6349634124246291
  0.4598137702505953  0.8931256858020102  0.3865689053145376
  0.5552026762942106  0.7777191369702247  0.1338980676255611
  0.1065450771386917  0.8808480319972055  0.8693336661345401
  0.2249183309525599  0.7791687743042429  0.6271573961210405
  0.7754386423257053  0.8816973577749624  0.3860769251564825
  0.8882647125457324  0.7775507786129230  0.1295387620883679
  0.4464832004590746  0.8880003231165505  0.8789291250211992
  0.5590779938411996  0.7795074267059917  0.6348760257676275
 
             NaN             NaN             NaN
             NaN             NaN             NaN
             NaN             NaN             NaN
             NaN             NaN             NaN
             NaN             NaN             NaN
             NaN             NaN             NaN
             NaN             NaN             NaN
             NaN             NaN             NaN
             NaN             NaN             NaN
             NaN             NaN             NaN
             NaN             NaN             NaN
             NaN             NaN             NaN
             NaN             NaN             NaN
             NaN             NaN             NaN
             NaN             NaN             NaN
             NaN             NaN             NaN
             NaN             NaN             NaN
             NaN             NaN             NaN
             NaN             NaN             NaN
             NaN             NaN             NaN
             NaN             NaN             NaN
             NaN             NaN             NaN
             NaN             NaN             NaN
             NaN             NaN             NaN
             NaN             NaN             NaN
             NaN             NaN             NaN
             NaN             NaN             NaN
             NaN             NaN             NaN
             NaN             NaN             NaN
             NaN             NaN             NaN
             NaN             NaN             NaN
             NaN             NaN             NaN
             NaN             NaN             NaN
             NaN             NaN             NaN
             NaN             NaN             NaN
             NaN             NaN             NaN
             NaN             NaN             NaN
             NaN             NaN             NaN
             NaN             NaN             NaN
             NaN             NaN             NaN
             NaN             NaN             NaN
             NaN             NaN             NaN
             NaN             NaN             NaN
             NaN             NaN             NaN
             NaN             NaN             NaN
             NaN             NaN             NaN
             NaN             NaN             NaN
             NaN             NaN             NaN
             NaN             NaN             NaN
             NaN             NaN             NaN
             NaN             NaN             NaN
             NaN             NaN             NaN
             NaN             NaN             NaN
             NaN             NaN             NaN
             NaN             NaN             NaN
             NaN             NaN             NaN
             NaN             NaN             NaN
             NaN             NaN             NaN
             NaN             NaN             NaN
             NaN             NaN             NaN
             NaN             NaN             NaN
             NaN             NaN             NaN
             NaN             NaN             NaN
             NaN             NaN             NaN
             NaN             NaN             NaN
             NaN             NaN             NaN
             NaN             NaN             NaN
             NaN             NaN             NaN
             NaN             NaN             NaN
             NaN             NaN             NaN
             NaN             NaN             NaN
             NaN             NaN             NaN
