Al   Hf   N                             
   1.00000000000000     
     9.5150554257677555    0.0084490571873887    0.0206458868232142
    -4.7523988803050177    8.2113942664253869   -0.0077738977320635
    -0.0810547473505226   -0.0168429855176138   10.3927743535594939
   Al   Hf   N 
    34     2    36
Direct
  0.2228689280737688  0.1225100963911360  0.4030586943971237
  0.8850557672545026  0.1083982676296099  0.8233024379745899
  0.7868170410938209  0.2266641498795400  0.5733774217904213
  0.5549293682232884  0.1163112140049380  0.3960545695360465
  0.4445752956226895  0.2105380473270552  0.1428801404934379
  0.2314135835158411  0.1138650710061792  0.8828431647965328
  0.1196027915787779  0.2263338422933847  0.6475354474473062
  0.8708853526942136  0.1008938742437567  0.3290436452206318
  0.7808754596722230  0.2213028646455553  0.0731296262266345
  0.5557910473888427  0.1138767298410807  0.8891185083145732
  0.4470428138308901  0.2177499852815830  0.6441058158888006
  0.2149542793969288  0.4305140198973884  0.4055047468923010
  0.1018351151593633  0.5603079516133700  0.0569019913030281
  0.8854374491303972  0.4427330691261510  0.8199397082569739
  0.7760640287435259  0.5539815951381928  0.5701822699805807
  0.5527614130624636  0.4468185124096265  0.3213457925711273
  0.4588667930092362  0.5630754028216337  0.0666710363884577
  0.2269304378213680  0.4492358664331565  0.8797248015109040
  0.1050118019257635  0.5534355197937981  0.5833379345902280
  0.8862023845548009  0.4459252898807804  0.3201578530621249
  0.7762463233002563  0.5532150261492853  0.0714275440241637
  0.5633399101511646  0.4519264413424164  0.8197461986988013
  0.4558830669407701  0.5597949116040174  0.5750222337994826
  0.1027601124438013  0.8763397390117952  0.0567920291963469
  0.8857462262983496  0.7756567942291421  0.8205933851314595
  0.7796039031305178  0.8888748183464967  0.5712644787962609
  0.5566416455719730  0.7737753169537028  0.3215013920813262
  0.4436986310344049  0.8796939701072811  0.0639879491947390
  0.2238929080199575  0.7790273273008834  0.8153174407591040
  0.1049509236671162  0.8870731810419814  0.5814048676312839
  0.8860907704536919  0.7726386712667861  0.3199033734840287
  0.7731914806877208  0.8873145263370383  0.0727079185142412
  0.5602697202450473  0.7798905459393075  0.8184757733819460
  0.4465704969963629  0.8835442344170259  0.5754843200845668
  0.1251702903904615  0.2306591874809843  0.1314557637164453
  0.2077382353783489  0.7723562942070586  0.3199256198952438
  0.1015050321064831  0.2170576210457262  0.3486118202667962
  0.2380279901269581  0.1023027052725593  0.0664896488909611
  0.7869295764508732  0.2256776611521205  0.8836015628368923
  0.8863523061664343  0.1083935490800088  0.6354588085376455
  0.4352847208914169  0.2102232553254013  0.3305600823048851
  0.5532081162968531  0.1098219876890472  0.0784109408480441
  0.1204046677393635  0.2255556529047277  0.8347175664379759
  0.2292122511140064  0.1197912296130697  0.5890992185962214
  0.7817328939896464  0.2282912045919858  0.3859002116402130
  0.8570034274874707  0.0933773701516336  0.1472186561891168
  0.4478385020702009  0.2189541686596917  0.8277663165638736
  0.5556121191459277  0.1134211395764594  0.5849997898697399
  0.0954361257026729  0.5361970123283228  0.3973622966568234
  0.2337617333874169  0.4696572848495764  0.0687856217008596
  0.7789218369474773  0.5547570307807370  0.8848109164275535
  0.8852215168956542  0.4438802435826825  0.6360681702945239
  0.4452040105106149  0.5539058032360029  0.3865123525735369
  0.5581437911996170  0.4469151508911235  0.1333150661827584
  0.1061171443389601  0.5591700411591615  0.8696319105547928
  0.2260300148589898  0.4443052146264844  0.5958304951201522
  0.7700409594818823  0.5501086924144053  0.3843464320090149
  0.8889022296051969  0.4425056105850130  0.1306239636352187
  0.4583626580700675  0.5617244514209556  0.8787838258730192
  0.5620546510605355  0.4503323693443673  0.6338870762174043
  0.0955161539960137  0.8951236776303265  0.3964476713572315
  0.2224914512554890  0.7782635250607174  0.1125439362148096
  0.7794444554483699  0.8900926925579753  0.8848330996962914
  0.8854015305649015  0.7752711529667247  0.6354154311138217
  0.4551041421932337  0.8862094976087476  0.3869893777441343
  0.5540588237937775  0.7749124512891595  0.1340421701921880
  0.1066662405988630  0.8817017186890161  0.8702362353069965
  0.2236277557411747  0.7796034521908762  0.6289881732230167
  0.7735459101045908  0.8806030381350974  0.3857141261687452
  0.8882906790126350  0.7788079084500422  0.1289909605819035
  0.4433957801604815  0.8816214375597776  0.8758390182286910
  0.5599370028198205  0.7789474117631452  0.6342966042691780
 
             NaN             NaN             NaN
             NaN             NaN             NaN
             NaN             NaN             NaN
             NaN             NaN             NaN
             NaN             NaN             NaN
             NaN             NaN             NaN
             NaN             NaN             NaN
             NaN             NaN             NaN
             NaN             NaN             NaN
             NaN             NaN             NaN
             NaN             NaN             NaN
             NaN             NaN             NaN
             NaN             NaN             NaN
             NaN             NaN             NaN
             NaN             NaN             NaN
             NaN             NaN             NaN
             NaN             NaN             NaN
             NaN             NaN             NaN
             NaN             NaN             NaN
             NaN             NaN             NaN
             NaN             NaN             NaN
             NaN             NaN             NaN
             NaN             NaN             NaN
             NaN             NaN             NaN
             NaN             NaN             NaN
             NaN             NaN             NaN
             NaN             NaN             NaN
             NaN             NaN             NaN
             NaN             NaN             NaN
             NaN             NaN             NaN
             NaN             NaN             NaN
             NaN             NaN             NaN
             NaN             NaN             NaN
             NaN             NaN             NaN
             NaN             NaN             NaN
             NaN             NaN             NaN
             NaN             NaN             NaN
             NaN             NaN             NaN
             NaN             NaN             NaN
             NaN             NaN             NaN
             NaN             NaN             NaN
             NaN             NaN             NaN
             NaN             NaN             NaN
             NaN             NaN             NaN
             NaN             NaN             NaN
             NaN             NaN             NaN
             NaN             NaN             NaN
             NaN             NaN             NaN
             NaN             NaN             NaN
             NaN             NaN             NaN
             NaN             NaN             NaN
             NaN             NaN             NaN
             NaN             NaN             NaN
             NaN             NaN             NaN
             NaN             NaN             NaN
             NaN             NaN             NaN
             NaN             NaN             NaN
             NaN             NaN             NaN
             NaN             NaN             NaN
             NaN             NaN             NaN
             NaN             NaN             NaN
             NaN             NaN             NaN
             NaN             NaN             NaN
             NaN             NaN             NaN
             NaN             NaN             NaN
             NaN             NaN             NaN
             NaN             NaN             NaN
             NaN             NaN             NaN
             NaN             NaN             NaN
             NaN             NaN             NaN
             NaN             NaN             NaN
             NaN             NaN             NaN
