Al   Hf   N                             
   1.00000000000000     
     9.5314275135947355    0.0090577195323757    0.0081836233578758
    -4.7627548282421328    8.2204808407764460    0.0053846022504778
    -0.1428256806797170   -0.0670060377140789   10.4150915551844800
   Al   Hf   N 
    34     2    36
Direct
  0.2230965821247162  0.1208231751330051  0.3993169230548157
  0.8837567317504101  0.1066989513494174  0.8175610185374531
  0.7725049123216413  0.2195653660832973  0.6140498156854376
  0.5525054850875551  0.1083319924639711  0.3899352953124239
  0.4491636283237006  0.2231305674327344  0.1401062996928827
  0.2307247174306266  0.1127674759081581  0.8792549072172637
  0.1172576001479241  0.2233991194249480  0.6422499959802248
  0.8730934258074049  0.1033148346800512  0.3269172175892701
  0.7750223719299056  0.2257495032391403  0.1108265185756903
  0.5537435661038234  0.1100889747630374  0.8845703624922551
  0.4462765085692926  0.2236169847899801  0.6393195572873048
  0.2239338041882905  0.4331041382303298  0.3987874180212620
  0.1214360103574054  0.5711689335493741  0.0514668938981741
  0.8803500022702692  0.4412876271961623  0.8791977774247393
  0.7703407139892864  0.5498385105350612  0.6422795192218564
  0.5543080501935025  0.4435623814555347  0.3876552837047970
  0.4502703827028416  0.5587318020322752  0.1390862018249965
  0.2316969532385730  0.4490593097219921  0.8748198987546540
  0.1101096676015003  0.5533901861591441  0.5799890151253487
  0.8749673941462732  0.4391609353094313  0.3970346058555712
  0.7801766563844119  0.5515712665970242  0.1387165495307845
  0.5571422774700042  0.4451976336527453  0.8900491129450823
  0.4496265701826337  0.5577936624520640  0.6383009000012482
  0.1106775616225137  0.8773909449367689  0.0567212637613739
  0.8875839429845565  0.7835945386155574  0.8177588895916200
  0.7817803177094700  0.8903306240272690  0.5670187383677777
  0.5496107728397556  0.7747476005023559  0.3877219832290880
  0.4640986181572879  0.8976711472896061  0.1307705295783244
  0.2155988563793663  0.7747718986307590  0.8122904253651368
  0.1017188361226158  0.8850415083987120  0.5766442578389479
  0.8865285720040699  0.7850884382478652  0.3171266840564081
  0.7824708078344045  0.8902973004067675  0.0673663275455707
  0.5501620818461027  0.7747472430961162  0.8877160204841442
  0.4481059429206354  0.8895426817986417  0.6375275031623645
  0.1272654310859803  0.2287763852940923  0.1259013527288962
  0.2071415943151845  0.7691446905716338  0.3255624117670892
  0.1049524689090981  0.2175221379183644  0.3421481252253069
  0.2419342252308855  0.1042349954441805  0.0632687530804887
  0.7733843714177780  0.2209986746367505  0.8365994390079191
  0.8861043368865547  0.1056721261983036  0.6300049927288872
  0.4393021471613772  0.2176638031306723  0.3287763989502564
  0.5559618319506321  0.1155500943797110  0.0707979023429602
  0.1184690792470278  0.2242256325164229  0.8311678014185649
  0.2268235736239170  0.1174145823238948  0.5860039565608981
  0.7725672852298517  0.2225633826521686  0.3612808849850949
  0.8597687655663785  0.0941581377325935  0.1428476453438580
  0.4482369368434570  0.2246884000442450  0.8236053429962640
  0.5462099077501958  0.1056641545845157  0.5768690423379448
  0.0998606216525313  0.5331656148037581  0.3917657271928991
  0.2430559877903761  0.4685291833335591  0.0596448011794369
  0.7712243107063762  0.5514811633648139  0.8280947252725905
  0.8804084244468039  0.4451874779444333  0.5861916680086422
  0.4407189477112073  0.5535470819793242  0.3275845344009579
  0.5598262401498326  0.4460103073416469  0.0773293894709688
  0.1096527037100083  0.5572094835041028  0.8625010620991374
  0.2282224915549322  0.4406535740932455  0.5872775564708954
  0.7722547664495201  0.5500796370481844  0.3261334528889359
  0.8909936564015477  0.4481453330739005  0.0710469987379406
  0.4515713981972436  0.5583183713236296  0.8223886314585106
  0.5550160093291719  0.4441868625192108  0.5744450482854043
  0.0928109319692327  0.8933155659299284  0.3934561369869275
  0.2332555570554039  0.7834183285232946  0.1099017092022134
  0.7844434942178783  0.8936409800451182  0.8817543909438443
  0.8858285552872235  0.7819570994066329  0.6337263268412213
  0.4753605001542420  0.9039840504635955  0.3119574652159883
  0.5541570059663792  0.7723244792349421  0.0728658886938172
  0.1058787666701914  0.8803537977776417  0.8710719427199429
  0.2140708882051385  0.7753408975502351  0.6265007893950382
  0.7783768898154878  0.8858288828571959  0.3834193552245671
  0.8978050041823877  0.7872582625612488  0.1290713170757583
  0.4488056346017301  0.8902063591710415  0.8242335929460691
  0.5474356783913684  0.7744695783948514  0.5752848769480252
 
             NaN             NaN             NaN
             NaN             NaN             NaN
             NaN             NaN             NaN
             NaN             NaN             NaN
             NaN             NaN             NaN
             NaN             NaN             NaN
             NaN             NaN             NaN
             NaN             NaN             NaN
             NaN             NaN             NaN
             NaN             NaN             NaN
             NaN             NaN             NaN
             NaN             NaN             NaN
             NaN             NaN             NaN
             NaN             NaN             NaN
             NaN             NaN             NaN
             NaN             NaN             NaN
             NaN             NaN             NaN
             NaN             NaN             NaN
             NaN             NaN             NaN
             NaN             NaN             NaN
             NaN             NaN             NaN
             NaN             NaN             NaN
             NaN             NaN             NaN
             NaN             NaN             NaN
             NaN             NaN             NaN
             NaN             NaN             NaN
             NaN             NaN             NaN
             NaN             NaN             NaN
             NaN             NaN             NaN
             NaN             NaN             NaN
             NaN             NaN             NaN
             NaN             NaN             NaN
             NaN             NaN             NaN
             NaN             NaN             NaN
             NaN             NaN             NaN
             NaN             NaN             NaN
             NaN             NaN             NaN
             NaN             NaN             NaN
             NaN             NaN             NaN
             NaN             NaN             NaN
             NaN             NaN             NaN
             NaN             NaN             NaN
             NaN             NaN             NaN
             NaN             NaN             NaN
             NaN             NaN             NaN
             NaN             NaN             NaN
             NaN             NaN             NaN
             NaN             NaN             NaN
             NaN             NaN             NaN
             NaN             NaN             NaN
             NaN             NaN             NaN
             NaN             NaN             NaN
             NaN             NaN             NaN
             NaN             NaN             NaN
             NaN             NaN             NaN
             NaN             NaN             NaN
             NaN             NaN             NaN
             NaN             NaN             NaN
             NaN             NaN             NaN
             NaN             NaN             NaN
             NaN             NaN             NaN
             NaN             NaN             NaN
             NaN             NaN             NaN
             NaN             NaN             NaN
             NaN             NaN             NaN
             NaN             NaN             NaN
             NaN             NaN             NaN
             NaN             NaN             NaN
             NaN             NaN             NaN
             NaN             NaN             NaN
             NaN             NaN             NaN
             NaN             NaN             NaN
