Al   Hf   N                             
   1.00000000000000     
     9.5176253830102002    0.0100262209953124    0.0028325629620568
    -4.7439637755917525    8.2421294352655075    0.0031056532930444
    -0.0327344922894542    0.0433696047879481   10.1566524637610094
   Al   Hf   N 
    34     2    36
Direct
  0.2181502018043182  0.1221253999311270  0.3954986932295371
  0.8787779528214750  0.1035061220147201  0.8198748038926300
  0.7812046964193615  0.2240324393431476  0.5656690586100096
  0.5600225725696314  0.1159692554872596  0.3182767446926045
  0.4569815852009462  0.2256554426424133  0.0633849867562131
  0.2287558651099782  0.1072409812877429  0.8719418623938812
  0.1141692685759156  0.2212744605004517  0.6416643745088024
  0.8795053204680692  0.1060982435574553  0.3182500275875200
  0.7699962170723416  0.2197098249545611  0.0667364215985470
  0.5597469567162302  0.1117344543705798  0.8138121269469232
  0.4557912933312874  0.2282007635759107  0.5728879525065855
  0.2264502272066080  0.4474947667974090  0.3227117078375386
  0.1094157874805266  0.5608915031396849  0.0631350593393023
  0.8868420895475433  0.4424628949239902  0.8195085543767761
  0.7775152268729137  0.5548290538000334  0.5675601237559144
  0.5533886610637592  0.4425584279957145  0.3194138298877732
  0.4470963935813259  0.5622768775834872  0.0688238514785255
  0.2298853689899324  0.4508239366734161  0.8247686143057918
  0.1086498340539007  0.5467739991142833  0.5776704669096175
  0.8903676337737559  0.4486801326559306  0.3161186275318137
  0.7756419349397482  0.5545467970280546  0.0681285502641875
  0.5589236387700574  0.4470981556891289  0.8171128982039425
  0.4466738990998147  0.5563854188756687  0.5691900547355752
  0.1022900190806513  0.8735700755941284  0.0551566894357446
  0.8835038803681876  0.7732221200529308  0.8160400512974650
  0.7782218351301080  0.8877779100515429  0.5654988781531046
  0.5603589300035278  0.7785469671821603  0.3172116376436481
  0.4484748971080786  0.8920649352723643  0.0627682960088357
  0.2246004339981020  0.7754462673994568  0.8138907850843204
  0.1050811930298562  0.8857401591673800  0.5808251254925664
  0.8880618134844783  0.7738180515058473  0.3150994056308908
  0.7706417872681701  0.8852315336096669  0.0659989118220060
  0.5565039354119631  0.7773634850858478  0.8158098752200313
  0.4514746091475330  0.8914701741566929  0.5688787106887215
  0.1152920793049681  0.2228060493254947  0.0982702950098631
  0.2076074350083050  0.7709871356084708  0.3212148515951833
  0.1101032451132277  0.2211631240678902  0.3296280296562930
  0.2354656148867257  0.0938618875298723  0.0678317717250408
  0.7776990050979393  0.2208114549663582  0.8774928381559853
  0.8850736225637789  0.1078794831158377  0.6279412508864358
  0.4478422132387186  0.2236247885485586  0.3806741386670480
  0.5541698516916841  0.1106769105265690  0.1284074921242011
  0.1102750915733106  0.2179580596378405  0.8426178590721043
  0.2262002431137450  0.1165224514831385  0.5945340264659849
  0.7785271204722255  0.2257453099684326  0.3775202509459437
  0.8557632378441210  0.0955446531121431  0.1299319467300312
  0.4580040642281083  0.2279573516546672  0.8704694051746519
  0.5600455015298542  0.1116593778970597  0.6265893740446460
  0.1009753210879037  0.5296392474319022  0.3941002385484072
  0.2373934106801819  0.4835980964553208  0.1363215656374702
  0.7776620136039628  0.5545218687091161  0.8787364040328606
  0.8869904179767729  0.4429304237248864  0.6311757308552368
  0.4462572694344288  0.5562750354287075  0.3802755623062907
  0.5526931064410638  0.4435248299682107  0.1281928830762981
  0.1105283150009567  0.5536015329008164  0.8744215586975880
  0.2297238993242920  0.4495215719398207  0.6350185203372343
  0.7725781833690853  0.5523529172846152  0.3789008494570318
  0.8868408464827995  0.4416398577619539  0.1231155022080006
  0.4490484560708657  0.5579949586982512  0.8793593464983194
  0.5584407642105471  0.4473790967085146  0.6290733972771472
  0.0964619614035951  0.8974532261235508  0.3919372603208421
  0.2257646449551059  0.7818312227520221  0.1087632338041980
  0.7752597072053657  0.8852769176624428  0.8768095853067719
  0.8837953296673524  0.7742011286568961  0.6292024697930793
  0.4621318965892229  0.8975724156236990  0.3802063908571818
  0.5552197710018273  0.7788979197215905  0.1273885330661439
  0.1053564057753821  0.8776150970337990  0.8629594162134889
  0.2245280372637179  0.7764664306413679  0.6215831354471598
  0.7780076678405924  0.8855657408876848  0.3771195079872227
  0.8862089984875271  0.7779580372137282  0.1226368191093961
  0.4469039480320039  0.8899385389701523  0.8722558753628544
  0.5575863069408488  0.7773454285868868  0.6274048095782421
 
             NaN             NaN             NaN
             NaN             NaN             NaN
             NaN             NaN             NaN
             NaN             NaN             NaN
             NaN             NaN             NaN
             NaN             NaN             NaN
             NaN             NaN             NaN
             NaN             NaN             NaN
             NaN             NaN             NaN
             NaN             NaN             NaN
             NaN             NaN             NaN
             NaN             NaN             NaN
             NaN             NaN             NaN
             NaN             NaN             NaN
             NaN             NaN             NaN
             NaN             NaN             NaN
             NaN             NaN             NaN
             NaN             NaN             NaN
             NaN             NaN             NaN
             NaN             NaN             NaN
             NaN             NaN             NaN
             NaN             NaN             NaN
             NaN             NaN             NaN
             NaN             NaN             NaN
             NaN             NaN             NaN
             NaN             NaN             NaN
             NaN             NaN             NaN
             NaN             NaN             NaN
             NaN             NaN             NaN
             NaN             NaN             NaN
             NaN             NaN             NaN
             NaN             NaN             NaN
             NaN             NaN             NaN
             NaN             NaN             NaN
             NaN             NaN             NaN
             NaN             NaN             NaN
             NaN             NaN             NaN
             NaN             NaN             NaN
             NaN             NaN             NaN
             NaN             NaN             NaN
             NaN             NaN             NaN
             NaN             NaN             NaN
             NaN             NaN             NaN
             NaN             NaN             NaN
             NaN             NaN             NaN
             NaN             NaN             NaN
             NaN             NaN             NaN
             NaN             NaN             NaN
             NaN             NaN             NaN
             NaN             NaN             NaN
             NaN             NaN             NaN
             NaN             NaN             NaN
             NaN             NaN             NaN
             NaN             NaN             NaN
             NaN             NaN             NaN
             NaN             NaN             NaN
             NaN             NaN             NaN
             NaN             NaN             NaN
             NaN             NaN             NaN
             NaN             NaN             NaN
             NaN             NaN             NaN
             NaN             NaN             NaN
             NaN             NaN             NaN
             NaN             NaN             NaN
             NaN             NaN             NaN
             NaN             NaN             NaN
             NaN             NaN             NaN
             NaN             NaN             NaN
             NaN             NaN             NaN
             NaN             NaN             NaN
             NaN             NaN             NaN
             NaN             NaN             NaN
