Al   Hf   N                             
   1.00000000000000     
     9.5316043725136481    0.0088448643720401    0.0077731385089729
    -4.7612937852535868    8.2209810807078743    0.0049931559645240
    -0.1433832394659298   -0.0675165541004452   10.4180364695694081
   Al   Hf   N 
    34     2    36
Direct
  0.2229969148737128  0.1207985587124112  0.3993889931580779
  0.8833233488475509  0.1070651181984838  0.8174454101298102
  0.7733605671303950  0.2187285674942163  0.6028171778290032
  0.5515696831634925  0.1077179375985279  0.3901263760427313
  0.4492157026658821  0.2231086005092547  0.1401373388289423
  0.2306216487513408  0.1128295521419108  0.8793087130933335
  0.1172556338570293  0.2234289748347487  0.6424440115338201
  0.8727005712995923  0.1035730970154363  0.3270370105388896
  0.7759470429880951  0.2248482418895511  0.1000400866101086
  0.5530003208461243  0.1096468107006112  0.8844248090206327
  0.4462398928971376  0.2235815477827965  0.6394916142225567
  0.2238975810085427  0.4330442639488668  0.3987992602592482
  0.1216296945683441  0.5713691458739657  0.0514478870076333
  0.8808200748562294  0.4419677322728915  0.8787794272231604
  0.7703211143944166  0.5498135368368986  0.6424825580941304
  0.5542799427688853  0.4435618392986054  0.3877421284187491
  0.4503405099054257  0.5588517350731151  0.1390517141933379
  0.2316844891008820  0.4489827641255899  0.8748259461476302
  0.1102448643221487  0.5535716162866448  0.5801308234486506
  0.8753787860808903  0.4398676856872684  0.3970392562168469
  0.7801517401629651  0.5515476176299973  0.1387834939081758
  0.5571284629831897  0.4452020851870097  0.8900915516492600
  0.4496146930530876  0.5577806263934044  0.6383259055787552
  0.1106977836732698  0.8774464747313525  0.0567451528322690
  0.8875951306909478  0.7837237583178617  0.8177987585577645
  0.7817752876588916  0.8902083855040055  0.5670956251617765
  0.5496687516083800  0.7747540620913178  0.3877616803879784
  0.4640911079190549  0.8977222684305989  0.1308876873383374
  0.2156087380878075  0.7748032482648600  0.8122687729210204
  0.1017423052874918  0.8850496093454603  0.5766795453223158
  0.8865796606757264  0.7851560654800640  0.3171441441206366
  0.7824966291280736  0.8904624452848491  0.0674526718221646
  0.5502584524701276  0.7747946702081669  0.8877373168829199
  0.4480781118012275  0.8895288919976869  0.6377292006739448
  0.1270056874806671  0.2286921095796567  0.1259200702828825
  0.2071948395838307  0.7691965818009884  0.3255434690735092
  0.1048724592270940  0.2174569411879033  0.3420651590812326
  0.2418677523861690  0.1043389339061555  0.0633534295970146
  0.7742023906990898  0.2204290501160877  0.8440650303810289
  0.8858108907624768  0.1056599687696726  0.6305529157088852
  0.4393788337830948  0.2177129446823412  0.3287242905139912
  0.5549698685790547  0.1151277196109024  0.0711080771051201
  0.1184883312471059  0.2242487225284688  0.8310597222291367
  0.2267352003920052  0.1174574806999453  0.5859767140938856
  0.7732934161273988  0.2210985189729426  0.3708218663915996
  0.8590229416423119  0.0947397961482472  0.1435421025023142
  0.4481630111412153  0.2247354124544849  0.8236563155961284
  0.5450692998607488  0.1051299396181398  0.5773694060644751
  0.0999121546385516  0.5332221349197904  0.3917202768261376
  0.2430644062903917  0.4684548407423487  0.0596903684665241
  0.7711436506794994  0.5515760747978635  0.8281546428692077
  0.8809872076130270  0.4460616376628221  0.5869301516593129
  0.4406995536354943  0.5535077205096669  0.3275428787318808
  0.5597841171233376  0.4459940616918644  0.0773907801008816
  0.1098914332679174  0.5573756556229296  0.8625368698166997
  0.2282005272509796  0.4406411540181213  0.5872175236569331
  0.7721757835631309  0.5498731575315939  0.3260914897139341
  0.8916103711107309  0.4492683120244036  0.0714613044575153
  0.4515713438772256  0.5583308082307386  0.8223979323473208
  0.5550365255651240  0.4441738323467976  0.5744517755901313
  0.0928285433181850  0.8932763090590290  0.3934990843117729
  0.2332811417683895  0.7834772287738917  0.1099905751903312
  0.7845277974091107  0.8937197686920485  0.8818552360900885
  0.8858608666636513  0.7820077497065632  0.6337926173728748
  0.4754613652775949  0.9040206226055445  0.3119219311760389
  0.5541935929790174  0.7724168192971197  0.0729015171023265
  0.1059031790555927  0.8803714456611496  0.8711421745076642
  0.2141065700781211  0.7753870751031391  0.6265471183247059
  0.7784348921636586  0.8858256434379123  0.3834446862534615
  0.8978031863751625  0.7874233989118897  0.1291945576047925
  0.4486948497856110  0.8900194508061913  0.8242686634082454
  0.5474335206491909  0.7744802704046093  0.5752703744738593
 
             NaN             NaN             NaN
             NaN             NaN             NaN
             NaN             NaN             NaN
             NaN             NaN             NaN
             NaN             NaN             NaN
             NaN             NaN             NaN
             NaN             NaN             NaN
             NaN             NaN             NaN
             NaN             NaN             NaN
             NaN             NaN             NaN
             NaN             NaN             NaN
             NaN             NaN             NaN
             NaN             NaN             NaN
             NaN             NaN             NaN
             NaN             NaN             NaN
             NaN             NaN             NaN
             NaN             NaN             NaN
             NaN             NaN             NaN
             NaN             NaN             NaN
             NaN             NaN             NaN
             NaN             NaN             NaN
             NaN             NaN             NaN
             NaN             NaN             NaN
             NaN             NaN             NaN
             NaN             NaN             NaN
             NaN             NaN             NaN
             NaN             NaN             NaN
             NaN             NaN             NaN
             NaN             NaN             NaN
             NaN             NaN             NaN
             NaN             NaN             NaN
             NaN             NaN             NaN
             NaN             NaN             NaN
             NaN             NaN             NaN
             NaN             NaN             NaN
             NaN             NaN             NaN
             NaN             NaN             NaN
             NaN             NaN             NaN
             NaN             NaN             NaN
             NaN             NaN             NaN
             NaN             NaN             NaN
             NaN             NaN             NaN
             NaN             NaN             NaN
             NaN             NaN             NaN
             NaN             NaN             NaN
             NaN             NaN             NaN
             NaN             NaN             NaN
             NaN             NaN             NaN
             NaN             NaN             NaN
             NaN             NaN             NaN
             NaN             NaN             NaN
             NaN             NaN             NaN
             NaN             NaN             NaN
             NaN             NaN             NaN
             NaN             NaN             NaN
             NaN             NaN             NaN
             NaN             NaN             NaN
             NaN             NaN             NaN
             NaN             NaN             NaN
             NaN             NaN             NaN
             NaN             NaN             NaN
             NaN             NaN             NaN
             NaN             NaN             NaN
             NaN             NaN             NaN
             NaN             NaN             NaN
             NaN             NaN             NaN
             NaN             NaN             NaN
             NaN             NaN             NaN
             NaN             NaN             NaN
             NaN             NaN             NaN
             NaN             NaN             NaN
             NaN             NaN             NaN
