Al   Hf   N                             
   1.00000000000000     
     9.5095757631135935    0.0092382795445853    0.0176888304203698
    -4.7515310597890759    8.2342572860264269   -0.0057630361855625
    -0.0776982753841267   -0.0282588365941805   10.4009505806637250
   Al   Hf   N 
    34     2    36
Direct
  0.2228595230332780  0.1222136281766320  0.4028639712277639
  0.8843094575377329  0.1085448849722911  0.8226629059390088
  0.7865662990019197  0.2267995751832009  0.5726895280230060
  0.5556034349258749  0.1171144800593974  0.3954621183416114
  0.4442868302394579  0.2098555844682023  0.1434068155800923
  0.2296821396816668  0.1125165156581592  0.8824802206650643
  0.1172794504008125  0.2238301788946196  0.6467028126155383
  0.8738190110456964  0.1029759090024310  0.3288626276096766
  0.7815037904974905  0.2217602765845109  0.0734283439845089
  0.5554176842721146  0.1144388001335258  0.8904604235560616
  0.4462793484646155  0.2159331049760512  0.6437495894234937
  0.2234758287632377  0.4346837724147027  0.4057037767793651
  0.1031149253568455  0.5606082072078973  0.0547618202610220
  0.8855288625798500  0.4425738075553193  0.8190016319308242
  0.7748541842002376  0.5534907348177892  0.5689293658484487
  0.5542394635289274  0.4452621446128733  0.3238010080627198
  0.4500297607267745  0.5583446242301503  0.1127301569520902
  0.2292663491214159  0.4502254802674603  0.8777112760298154
  0.1039270565368463  0.5528072678928201  0.5815606460569179
  0.8881189506586724  0.4461631686581959  0.3198821459953262
  0.7778203931450846  0.5536738750670903  0.0706525731641313
  0.5639869625510889  0.4481992524435227  0.8212124650814683
  0.4470977425114444  0.5567707877509598  0.6295195038929363
  0.1026295910614118  0.8754946257330002  0.0565692718013252
  0.8846867976725084  0.7751996768919394  0.8198215675694186
  0.7786975333154544  0.8885590549564530  0.5700837212368094
  0.5590134314113075  0.7779818874288138  0.3235399752910952
  0.4438016054810319  0.8807687871657426  0.0636932069548646
  0.2231023764245355  0.7785358358292054  0.8146544146713400
  0.1038546587316598  0.8859579588713687  0.5805136416702165
  0.8866112608674470  0.7728592497382210  0.3194911933477387
  0.7742762623985420  0.8878605680289366  0.0721007439996247
  0.5617816908527323  0.7863749541438450  0.8193238276038919
  0.4460246885411480  0.8846000793595065  0.5735443625896576
  0.1262919213445401  0.2309037615644377  0.1303126151625264
  0.2078317067450302  0.7708578256195674  0.3196601782768806
  0.1042877469920532  0.2193585837959454  0.3479022457895501
  0.2374018654302024  0.1009658819656479  0.0664328251926000
  0.7865809635620787  0.2260313382801541  0.8836376247365607
  0.8853304767610382  0.1079228045157949  0.6349761949894349
  0.4355079821979086  0.2101650957744841  0.3306891771027388
  0.5538536205315320  0.1102135223348240  0.0790431792710104
  0.1189040872716384  0.2247722294826919  0.8347817956381358
  0.2279356802142704  0.1181120687216732  0.5892021037621783
  0.7825429303726160  0.2288644626460949  0.3852015304709958
  0.8589168838938976  0.0944015163764203  0.1465863662851244
  0.4463160784876711  0.2171910763805100  0.8280391576695973
  0.5555339746415854  0.1135042968139947  0.5838727538928494
  0.0972786185020756  0.5358612509514128  0.3969308481669266
  0.2370881603763976  0.4696403497081449  0.0628161616588126
  0.7789661327410408  0.5549496888488594  0.8846239716966148
  0.8849313182224499  0.4436612138976451  0.6353189561286181
  0.4399858850454924  0.5535382585500853  0.3552746301543531
  0.5616544034070143  0.4443330213729119  0.1316189960098743
  0.1058613666757283  0.5588729803660881  0.8687073047640256
  0.2242560906445759  0.4420644910593670  0.5940762313078344
  0.7718476636737720  0.5508577574884365  0.3837134240682666
  0.8914042782196593  0.4429452709909096  0.1299723084522290
  0.4495323281581182  0.5592387911127954  0.8386743835665976
  0.5627944712413628  0.4458945853030908  0.6319858868459075
  0.0962500012798507  0.8949636040192225  0.3957142596086293
  0.2226714622157347  0.7771519770214846  0.1121659190173366
  0.7794969419063139  0.8906644776547907  0.8849622382371217
  0.8840030338869898  0.7745001393777490  0.6347865653482371
  0.4551852300687036  0.8883002386159481  0.3860322226816735
  0.5571194215216001  0.7806462451380911  0.1332685908393423
  0.1054997204531438  0.8807952985326782  0.8700642745954351
  0.2231059251856548  0.7787415362677325  0.6283357352551268
  0.7758090734234446  0.8827836387162743  0.3852344438040115
  0.8883401380282083  0.7784836833819230  0.1286492038486804
  0.4422256930672698  0.8832736171379848  0.8767314443539606
  0.5618998086957031  0.7855832801620909  0.6335972687665096
 
             NaN             NaN             NaN
             NaN             NaN             NaN
             NaN             NaN             NaN
             NaN             NaN             NaN
             NaN             NaN             NaN
             NaN             NaN             NaN
             NaN             NaN             NaN
             NaN             NaN             NaN
             NaN             NaN             NaN
             NaN             NaN             NaN
             NaN             NaN             NaN
             NaN             NaN             NaN
             NaN             NaN             NaN
             NaN             NaN             NaN
             NaN             NaN             NaN
             NaN             NaN             NaN
             NaN             NaN             NaN
             NaN             NaN             NaN
             NaN             NaN             NaN
             NaN             NaN             NaN
             NaN             NaN             NaN
             NaN             NaN             NaN
             NaN             NaN             NaN
             NaN             NaN             NaN
             NaN             NaN             NaN
             NaN             NaN             NaN
             NaN             NaN             NaN
             NaN             NaN             NaN
             NaN             NaN             NaN
             NaN             NaN             NaN
             NaN             NaN             NaN
             NaN             NaN             NaN
             NaN             NaN             NaN
             NaN             NaN             NaN
             NaN             NaN             NaN
             NaN             NaN             NaN
             NaN             NaN             NaN
             NaN             NaN             NaN
             NaN             NaN             NaN
             NaN             NaN             NaN
             NaN             NaN             NaN
             NaN             NaN             NaN
             NaN             NaN             NaN
             NaN             NaN             NaN
             NaN             NaN             NaN
             NaN             NaN             NaN
             NaN             NaN             NaN
             NaN             NaN             NaN
             NaN             NaN             NaN
             NaN             NaN             NaN
             NaN             NaN             NaN
             NaN             NaN             NaN
             NaN             NaN             NaN
             NaN             NaN             NaN
             NaN             NaN             NaN
             NaN             NaN             NaN
             NaN             NaN             NaN
             NaN             NaN             NaN
             NaN             NaN             NaN
             NaN             NaN             NaN
             NaN             NaN             NaN
             NaN             NaN             NaN
             NaN             NaN             NaN
             NaN             NaN             NaN
             NaN             NaN             NaN
             NaN             NaN             NaN
             NaN             NaN             NaN
             NaN             NaN             NaN
             NaN             NaN             NaN
             NaN             NaN             NaN
             NaN             NaN             NaN
             NaN             NaN             NaN
