Al   Hf   N                             
   1.00000000000000     
     9.5118069586055416    0.0087121313064543    0.0196602013555994
    -4.7495983798664891    8.2275912004857190   -0.0071036105498965
    -0.0803645136864484   -0.0294020748425471   10.3877844198717195
   Al   Hf   N 
    34     2    36
Direct
  0.2230723077520260  0.1222882731869983  0.4028090180685756
  0.8842009257253380  0.1083636465069369  0.8229785480590737
  0.7865206623366191  0.2267437439164567  0.5727161114710727
  0.5555341558805635  0.1170304065147451  0.3952401178387435
  0.4443827411754118  0.2102007984800134  0.1434100359512839
  0.2299538735095753  0.1126928459177696  0.8825921659179784
  0.1174618418521491  0.2239476349856111  0.6471731162438045
  0.8730286172808427  0.1023520196193748  0.3289466438933070
  0.7817016353629725  0.2217376876972738  0.0733676888946607
  0.5554211519500621  0.1143630405868375  0.8903446924800781
  0.4461440757261216  0.2161208882261408  0.6441966310484992
  0.2200254018505035  0.4328698205605800  0.4060780068559699
  0.1026776782684209  0.5604076510694103  0.0552647395738334
  0.8852560632231118  0.4425821619634446  0.8192641755801161
  0.7751684741856776  0.5535362098724311  0.5692561661238638
  0.5530612315751022  0.4468317334009725  0.3229305008359032
  0.4569361659839283  0.5620262077701732  0.0772431255944350
  0.2274098755035018  0.4492194717488134  0.8773092354719670
  0.1038567486464796  0.5529555821645230  0.5824337907792719
  0.8876917485033055  0.4461783503922948  0.3199045768065620
  0.7775091727962067  0.5534194541497865  0.0710952714246146
  0.5632837390733392  0.4498650005664098  0.8207571507412434
  0.4517644572710540  0.5586440886126782  0.5951421856908812
  0.1027033938773185  0.8757441301606154  0.0566181584257677
  0.8846759094033598  0.7751730666869205  0.8201329944742548
  0.7789374980283615  0.8887563905980423  0.5704431596854090
  0.5575672131222549  0.7748675394081834  0.3230576266104525
  0.4438211083614686  0.8805278006922287  0.0641783368443416
  0.2233052438883885  0.7787749586534723  0.8148339398291670
  0.1039317564081565  0.8861360801728700  0.5806293915810901
  0.8864620606369465  0.7727392237530267  0.3195893786283463
  0.7741414966265738  0.8878560397771154  0.0725548716826932
  0.5607042216081407  0.7832827508201723  0.8194401846807954
  0.4459900994767049  0.8845181471612621  0.5740739261083322
  0.1264219715637838  0.2313489355023336  0.1310689547132199
  0.2078755967282220  0.7711644588212783  0.3196546650061182
  0.1035836112715468  0.2188329224533338  0.3485742230833909
  0.2376941475769190  0.1013271419452607  0.0664822798547766
  0.7865340398311683  0.2259803307536241  0.8835940015421431
  0.8851671470231455  0.1078247034658512  0.6350290020923185
  0.4356046252405411  0.2106123343073670  0.3306830407221296
  0.5539551399975042  0.1102754210296069  0.0792420655353718
  0.1189506052341935  0.2244058999047375  0.8346643921315530
  0.2281735052420985  0.1184575876017618  0.5891556726345077
  0.7824074395848034  0.2287758876577874  0.3852241768992239
  0.8586506502436200  0.0941066048450230  0.1467791618681147
  0.4465784504968663  0.2176535624718827  0.8281050804393717
  0.5555006348235384  0.1136328365690287  0.5839955952709924
  0.0968910841547887  0.5357769377165181  0.3972099254257893
  0.2345010221061649  0.4690624412330271  0.0654354242260880
  0.7789227252191713  0.5547231444108414  0.8846913575818506
  0.8845980187434264  0.4436147383432609  0.6353868935131006
  0.4447597304390582  0.5549960894322045  0.3805709652860538
  0.5597208546262152  0.4459576085871770  0.1327645157982925
  0.1058331132101869  0.5590305018330660  0.8685399139156226
  0.2236255456612810  0.4424049450580934  0.5969681965690957
  0.7712595748325960  0.5505015084356164  0.3837798169257191
  0.8906832706030410  0.4428739078676636  0.1301333296979620
  0.4551805615575849  0.5612783638228885  0.8659508614663717
  0.5621918637556711  0.4476121942476163  0.6339171858382319
  0.0961544090536061  0.8950387535846155  0.3956586967210415
  0.2225717275558935  0.7774856044657427  0.1121758270933181
  0.7794716164447627  0.8906812496267364  0.8849812657841192
  0.8841268921437265  0.7745956193226239  0.6348121548728201
  0.4553911222901635  0.8876708005817817  0.3861052456446072
  0.5554041883075083  0.7771814178326296  0.1340490014577699
  0.1055776302321190  0.8809075252242500  0.8699724876599217
  0.2231225036760587  0.7790514332951789  0.6283112709981618
  0.7751397125883681  0.8822101883060768  0.3852991445901979
  0.8883962308542708  0.7784986528365436  0.1287190441707610
  0.4425058022528982  0.8829202942335054  0.8765696204310882
  0.5605609185887542  0.7827632057026633  0.6349045498156095
 
             NaN             NaN             NaN
             NaN             NaN             NaN
             NaN             NaN             NaN
             NaN             NaN             NaN
             NaN             NaN             NaN
             NaN             NaN             NaN
             NaN             NaN             NaN
             NaN             NaN             NaN
             NaN             NaN             NaN
             NaN             NaN             NaN
             NaN             NaN             NaN
             NaN             NaN             NaN
             NaN             NaN             NaN
             NaN             NaN             NaN
             NaN             NaN             NaN
             NaN             NaN             NaN
             NaN             NaN             NaN
             NaN             NaN             NaN
             NaN             NaN             NaN
             NaN             NaN             NaN
             NaN             NaN             NaN
             NaN             NaN             NaN
             NaN             NaN             NaN
             NaN             NaN             NaN
             NaN             NaN             NaN
             NaN             NaN             NaN
             NaN             NaN             NaN
             NaN             NaN             NaN
             NaN             NaN             NaN
             NaN             NaN             NaN
             NaN             NaN             NaN
             NaN             NaN             NaN
             NaN             NaN             NaN
             NaN             NaN             NaN
             NaN             NaN             NaN
             NaN             NaN             NaN
             NaN             NaN             NaN
             NaN             NaN             NaN
             NaN             NaN             NaN
             NaN             NaN             NaN
             NaN             NaN             NaN
             NaN             NaN             NaN
             NaN             NaN             NaN
             NaN             NaN             NaN
             NaN             NaN             NaN
             NaN             NaN             NaN
             NaN             NaN             NaN
             NaN             NaN             NaN
             NaN             NaN             NaN
             NaN             NaN             NaN
             NaN             NaN             NaN
             NaN             NaN             NaN
             NaN             NaN             NaN
             NaN             NaN             NaN
             NaN             NaN             NaN
             NaN             NaN             NaN
             NaN             NaN             NaN
             NaN             NaN             NaN
             NaN             NaN             NaN
             NaN             NaN             NaN
             NaN             NaN             NaN
             NaN             NaN             NaN
             NaN             NaN             NaN
             NaN             NaN             NaN
             NaN             NaN             NaN
             NaN             NaN             NaN
             NaN             NaN             NaN
             NaN             NaN             NaN
             NaN             NaN             NaN
             NaN             NaN             NaN
             NaN             NaN             NaN
             NaN             NaN             NaN
