Al   Hf   N                             
   1.00000000000000     
     9.4952635955171747    0.0077081072932598    0.0036797965518697
    -4.7545809624699524    8.2196836612640301    0.0010729081735307
    -0.1117828857264161   -0.0661716262620300   10.4117649181942742
   Al   Hf   N 
    34     2    36
Direct
  0.2215489917173556  0.1214441503976786  0.3997847144375797
  0.8834695501489946  0.1080953976359282  0.8202464243450081
  0.7817180802447581  0.2230129477751461  0.5694375259667837
  0.5505106586493014  0.1087096491532549  0.3889659577204654
  0.4483526617390083  0.2213587161985799  0.1403006414389267
  0.2314605275451598  0.1141520464626140  0.8790484680252106
  0.1168832872046011  0.2248040727710645  0.6439643258613117
  0.8694467747491004  0.1010845943544041  0.3251475142177185
  0.7817480358529920  0.2234630883819548  0.0678597142748387
  0.5508372475290528  0.1087724685576958  0.8877338910672492
  0.4481576363191024  0.2234059450514891  0.6394420765283257
  0.2215499759197996  0.4328263692553662  0.3997830689443163
  0.1126182576031880  0.5665679219579118  0.0565773021119327
  0.8865317702055862  0.4402286689699224  0.8208740473028939
  0.7738365690873223  0.5532800250819321  0.6180320694399839
  0.5537295414331354  0.4432247164581895  0.3858799060637850
  0.4483513398686512  0.5597157814164220  0.1403000245519550
  0.2314605582352272  0.4500290388553978  0.8790494618635165
  0.1034748582192151  0.5494655753340894  0.5779850828119990
  0.8852016131028506  0.4360566291562407  0.3171955474074224
  0.7787246337368074  0.5557245298600009  0.1187796630520239
  0.5574614226367629  0.4450912601017905  0.8913333756235957
  0.4481567746198607  0.5574741960043923  0.6394417551207425
  0.1126181799980444  0.8787744153121579  0.0565757151748940
  0.8865303510062077  0.7790239774896506  0.8208737526151069
  0.7817168995246320  0.8914283462292047  0.5694373695055717
  0.5505100111270309  0.7745209203653758  0.3889656477559740
  0.4633110508120453  0.8980170178096500  0.1321258550231263
  0.2164306771807958  0.7745754577453496  0.8135467087338881
  0.1034740359045188  0.8867330672681533  0.5779861196486991
  0.8851991799241148  0.7818667115137430  0.3171949174509976
  0.7817469052078678  0.8910085382153881  0.0678594630031100
  0.5508362649338352  0.7747853316132520  0.8877334485227308
  0.4495782557170145  0.8911510347120952  0.6371735673622823
  0.1236312967399158  0.2281772553369592  0.1261717589978559
  0.2089020254545773  0.7708128566226904  0.3310776482217790
  0.1026271680434974  0.2176749312216018  0.3427119580993150
  0.2407096502989106  0.1051091723668875  0.0630076528764079
  0.7852384994468977  0.2241288201971798  0.8816832924698659
  0.8826239588148468  0.1076729062240531  0.6339376762266369
  0.4386276073955457  0.2177463057346287  0.3282687532062027
  0.5528602153407718  0.1137605193700963  0.0727698805903430
  0.1197055111532919  0.2262142746507720  0.8313947880579988
  0.2269128504264799  0.1185476868629323  0.5870428732473343
  0.7794876320154458  0.2260614669054561  0.3853945539947858
  0.8540756601638222  0.0933990837452754  0.1445604053329106
  0.4510646233112396  0.2257965911632880  0.8231710509027224
  0.5473978468856302  0.1063964094738878  0.5763112564483777
  0.0925435557179384  0.5304368493887992  0.3945046135333143
  0.2407078989613893  0.4683191774572819  0.0630090627169082
  0.7779582830388421  0.5553416263644948  0.8533873709008191
  0.8852751161613881  0.4380054980927142  0.6348953561032005
  0.4386278512695867  0.5536029835188003  0.3282682279255624
  0.5536729434097722  0.4431962747463061  0.0787562019623422
  0.1083113269216867  0.5584222622526127  0.8701239653918407
  0.2269123928933965  0.4410857941999140  0.5870421813180897
  0.7722320186953766  0.5524787571930716  0.3347497464412754
  0.8979343585283104  0.4426875537798054  0.1283826224246738
  0.4510637985708144  0.5579898396521870  0.8231708076365649
  0.5533209152911027  0.4430202254666327  0.5737949328688075
  0.0925401909229535  0.8948311317520208  0.3945059225605405
  0.2301454218140009  0.7814343077894677  0.1143623809207028
  0.7852373916631592  0.8938345442206383  0.8816829315889549
  0.8852731623723074  0.7799902401869900  0.6348952478914143
  0.4785188302990164  0.9056201702550055  0.3129784756518248
  0.5528590558929096  0.7718181430310693  0.0727693430867831
  0.1083101552448582  0.8826123148162708  0.8701232118378286
  0.2130856579980360  0.7729038156205661  0.6260627003903139
  0.7794864995023332  0.8861522430512423  0.3853943879803268
  0.8979333592931056  0.7879684437933676  0.1283824100086690
  0.4506854881340487  0.8917042398680195  0.8235549678117593
  0.5473966023630297  0.7737203596225228  0.5763109052946049
 
             NaN             NaN             NaN
             NaN             NaN             NaN
             NaN             NaN             NaN
             NaN             NaN             NaN
             NaN             NaN             NaN
             NaN             NaN             NaN
             NaN             NaN             NaN
             NaN             NaN             NaN
             NaN             NaN             NaN
             NaN             NaN             NaN
             NaN             NaN             NaN
             NaN             NaN             NaN
             NaN             NaN             NaN
             NaN             NaN             NaN
             NaN             NaN             NaN
             NaN             NaN             NaN
             NaN             NaN             NaN
             NaN             NaN             NaN
             NaN             NaN             NaN
             NaN             NaN             NaN
             NaN             NaN             NaN
             NaN             NaN             NaN
             NaN             NaN             NaN
             NaN             NaN             NaN
             NaN             NaN             NaN
             NaN             NaN             NaN
             NaN             NaN             NaN
             NaN             NaN             NaN
             NaN             NaN             NaN
             NaN             NaN             NaN
             NaN             NaN             NaN
             NaN             NaN             NaN
             NaN             NaN             NaN
             NaN             NaN             NaN
             NaN             NaN             NaN
             NaN             NaN             NaN
             NaN             NaN             NaN
             NaN             NaN             NaN
             NaN             NaN             NaN
             NaN             NaN             NaN
             NaN             NaN             NaN
             NaN             NaN             NaN
             NaN             NaN             NaN
             NaN             NaN             NaN
             NaN             NaN             NaN
             NaN             NaN             NaN
             NaN             NaN             NaN
             NaN             NaN             NaN
             NaN             NaN             NaN
             NaN             NaN             NaN
             NaN             NaN             NaN
             NaN             NaN             NaN
             NaN             NaN             NaN
             NaN             NaN             NaN
             NaN             NaN             NaN
             NaN             NaN             NaN
             NaN             NaN             NaN
             NaN             NaN             NaN
             NaN             NaN             NaN
             NaN             NaN             NaN
             NaN             NaN             NaN
             NaN             NaN             NaN
             NaN             NaN             NaN
             NaN             NaN             NaN
             NaN             NaN             NaN
             NaN             NaN             NaN
             NaN             NaN             NaN
             NaN             NaN             NaN
             NaN             NaN             NaN
             NaN             NaN             NaN
             NaN             NaN             NaN
             NaN             NaN             NaN
