Al   Hf   N                             
   1.00000000000000     
     9.5179358119098598    0.0085552721740233    0.0034109898424024
    -4.7585801558642284    8.2381228690395769    0.0019963331968012
    -0.0180954124170907    0.0282130949164652   10.1012354013647183
   Al   Hf   N 
    34     2    36
Direct
  0.2240493749633184  0.1152768922103623  0.3280783633736265
  0.8802305592186475  0.1044732157024380  0.8167390415859711
  0.7792839823560479  0.2238497778925247  0.5630213839575391
  0.5603306716375498  0.1158505463747333  0.3150657649204016
  0.4498519675083459  0.2215727807381275  0.0635303555485816
  0.2292345017086886  0.1077943552411346  0.8189753039919999
  0.1122011793930186  0.2219733681832594  0.6231675941895569
  0.8803573555489463  0.1072264870180175  0.3160448649325678
  0.7703046342930782  0.2199135868067756  0.0642006893274073
  0.5585637722537319  0.1113329955265436  0.8126692681059364
  0.4489450790838097  0.2242063824594062  0.5683603150730761
  0.2255056652037129  0.4469916998674872  0.3194686922888563
  0.1094936108809781  0.5605628667631647  0.0595667115844674
  0.8866622636394091  0.4422554065088599  0.8164893622844894
  0.7768997821796400  0.5544101354273379  0.5660230035099674
  0.5539500027169547  0.4437178250557552  0.3169656421939400
  0.4472984643403163  0.5610310601900207  0.0655612861325267
  0.2291309033015384  0.4493793961116979  0.8204418919481455
  0.1081946315623710  0.5478776226575433  0.5743916213765248
  0.8894671884686546  0.4485484025014499  0.3133747793486339
  0.7763737429329298  0.5549515935828593  0.0659861108812585
  0.5572550056220468  0.4451525004520639  0.8160591828682350
  0.4469278471554105  0.5560803897564366  0.5660349397001513
  0.1077039505646414  0.8817418230060429  0.0561198597973888
  0.8848910466139682  0.7743138212004136  0.8154966899566450
  0.7783043046600173  0.8869308431809967  0.5626871648937256
  0.5607796862022602  0.7786737651763850  0.3143423683041233
  0.4492145718634928  0.8913848526465193  0.0602803283941688
  0.2246246425143489  0.7761120829110918  0.8127195376209101
  0.1074917203166952  0.8904672031317842  0.5769384116993276
  0.8896478541686550  0.7744665022427474  0.3128404809228050
  0.7715186560230384  0.8854598651817528  0.0633655075889570
  0.5567770563364314  0.7771034394540602  0.8129270357814391
  0.4512844242622153  0.8914552545556084  0.5666521776900728
  0.1156720636632668  0.2226402337901418  0.0861238511467181
  0.2075503843374877  0.7719461358977259  0.3187042552257437
  0.1085402003596310  0.2229495620327155  0.3348131199349340
  0.2360722018387639  0.0917695740752982  0.1243425987511071
  0.7772259989187740  0.2209085395181854  0.8741114058522862
  0.8843223083303967  0.1078451830671475  0.6237523293623939
  0.4458054532443895  0.2227979026262241  0.3783427805938266
  0.5545694784249683  0.1106677716564694  0.1245052152240790
  0.1097681891330598  0.2187457180697958  0.8453134298083390
  0.2290376709713183  0.1115638728633512  0.6286027203065969
  0.7779482271342596  0.2260797371631829  0.3743684408101694
  0.8574041158817144  0.0963805076349544  0.1267620733916662
  0.4498738889551274  0.2229212763023647  0.8731334056580077
  0.5585757716676036  0.1120029983244758  0.6241017169643515
  0.1009879972962558  0.5313322645316461  0.3894938909439528
  0.2361281874940076  0.4803239379443972  0.1313747131395417
  0.7773972995740354  0.5540023594206906  0.8756798731438619
  0.8866977403339307  0.4427452683398439  0.6277297052834170
  0.4459715203549929  0.5566608714874282  0.3765443953997057
  0.5532238641716996  0.4431732371957887  0.1253305808895681
  0.1104457350067221  0.5536089875633151  0.8702038334841059
  0.2286518197519536  0.4488236138542367  0.6297686626828359
  0.7725930900677002  0.5527883680298427  0.3766499016257444
  0.8875590747087108  0.4421425444647539  0.1202581799934059
  0.4486775401325013  0.5577171783264473  0.8753615255401932
  0.5564110965757340  0.4448310999643374  0.6265493434878570
  0.1001407244443536  0.9040784659245058  0.3915114505268495
  0.2260135781248987  0.7806578771774558  0.1051132513235204
  0.7754532397089812  0.8857149917240026  0.8734069727406635
  0.8852952228991842  0.7748061607582869  0.6273048784600145
  0.4621498749448459  0.8978224775708806  0.3770277354136724
  0.5553436646026759  0.7782011138182898  0.1241424770358344
  0.1094458161885284  0.8841911321737015  0.8662818523913551
  0.2237532516519360  0.7768052616503635  0.6187582017977297
  0.7783784028415274  0.8856460447016682  0.3738540594748622
  0.8873282112691425  0.7787388002726733  0.1195278910331062
  0.4471847293209689  0.8894038445031009  0.8691336621489637
  0.5574203249074381  0.7770349796567511  0.6239093741480385
 
             NaN             NaN             NaN
             NaN             NaN             NaN
             NaN             NaN             NaN
             NaN             NaN             NaN
             NaN             NaN             NaN
             NaN             NaN             NaN
             NaN             NaN             NaN
             NaN             NaN             NaN
             NaN             NaN             NaN
             NaN             NaN             NaN
             NaN             NaN             NaN
             NaN             NaN             NaN
             NaN             NaN             NaN
             NaN             NaN             NaN
             NaN             NaN             NaN
             NaN             NaN             NaN
             NaN             NaN             NaN
             NaN             NaN             NaN
             NaN             NaN             NaN
             NaN             NaN             NaN
             NaN             NaN             NaN
             NaN             NaN             NaN
             NaN             NaN             NaN
             NaN             NaN             NaN
             NaN             NaN             NaN
             NaN             NaN             NaN
             NaN             NaN             NaN
             NaN             NaN             NaN
             NaN             NaN             NaN
             NaN             NaN             NaN
             NaN             NaN             NaN
             NaN             NaN             NaN
             NaN             NaN             NaN
             NaN             NaN             NaN
             NaN             NaN             NaN
             NaN             NaN             NaN
             NaN             NaN             NaN
             NaN             NaN             NaN
             NaN             NaN             NaN
             NaN             NaN             NaN
             NaN             NaN             NaN
             NaN             NaN             NaN
             NaN             NaN             NaN
             NaN             NaN             NaN
             NaN             NaN             NaN
             NaN             NaN             NaN
             NaN             NaN             NaN
             NaN             NaN             NaN
             NaN             NaN             NaN
             NaN             NaN             NaN
             NaN             NaN             NaN
             NaN             NaN             NaN
             NaN             NaN             NaN
             NaN             NaN             NaN
             NaN             NaN             NaN
             NaN             NaN             NaN
             NaN             NaN             NaN
             NaN             NaN             NaN
             NaN             NaN             NaN
             NaN             NaN             NaN
             NaN             NaN             NaN
             NaN             NaN             NaN
             NaN             NaN             NaN
             NaN             NaN             NaN
             NaN             NaN             NaN
             NaN             NaN             NaN
             NaN             NaN             NaN
             NaN             NaN             NaN
             NaN             NaN             NaN
             NaN             NaN             NaN
             NaN             NaN             NaN
             NaN             NaN             NaN
