Al   Hf   N                             
   1.00000000000000     
     9.5123696194675773    0.0114515074041220    0.0135553445247759
    -4.7395426213566383    8.2409943590790657    0.0098408150928159
    -0.0250825159918157    0.0029964860110425   10.1119291763593946
   Al   Hf   N 
    34     2    36
Direct
  0.2251442003525455  0.1179501706190962  0.4046989063544260
  0.8819474173796564  0.1076328634959225  0.8932890614470566
  0.7770834636054218  0.2219582966028213  0.6453021557243304
  0.5625862367964061  0.1171426300391332  0.3948841146429203
  0.4428108892739715  0.2255521239924292  0.1462030721236829
  0.2247947363369605  0.1075767368273404  0.8828441255844339
  0.1087754657924336  0.2214571848902622  0.6484236117610251
  0.8852009721526173  0.1077501179361207  0.3992988022776132
  0.7719227927257819  0.2204200779803642  0.1442253724440334
  0.5549289935052215  0.1129173438226658  0.8954308813106735
  0.4481786737271776  0.2249359835317009  0.6442336944667062
  0.2255063391735632  0.4474513576825245  0.4026279390763605
  0.1046834929985323  0.5516323139776915  0.1382905156869469
  0.8853699588496866  0.4428757686053615  0.8923611928462023
  0.7755846401076809  0.5536200782768859  0.6434440820039384
  0.5556303569561436  0.4443887572254965  0.3929701135796151
  0.4436353732475737  0.5510135295571104  0.1450686224567974
  0.2247695251563755  0.4513180819400020  0.8853052521788314
  0.1063939983155535  0.5472551140364672  0.6397146941660878
  0.8807698055548201  0.4356109337835363  0.3920067203829376
  0.7778671786708742  0.5550871445607442  0.1424012884596877
  0.5561178393869000  0.4447109529365889  0.8931198229740716
  0.4466001276567297  0.5563574585266267  0.6436522310569899
  0.1093607020532090  0.8826583666947982  0.1303116225451859
  0.8846212978591481  0.7752117053176875  0.8907169802529182
  0.7755022674959093  0.8875024926531552  0.6475213924951930
  0.5574110574081388  0.7768412566881864  0.3966801218266625
  0.4539178020010297  0.8941746751219171  0.1408689554498750
  0.2196623104431836  0.7779779795695987  0.8302492843496481
  0.1037684327105666  0.8916896173492290  0.6333261415914677
  0.8822163410453783  0.7774183298677997  0.3970547083021501
  0.7721845448834372  0.8836412868056840  0.1453405644578538
  0.5538083294391498  0.7755011175416300  0.8959036093336792
  0.4544554366535394  0.8932596358154541  0.6429125561632958
  0.1258846509575804  0.2287314766266064  0.1418587011724455
  0.2284560059982255  0.7695279504322272  0.3746526269954913
  0.1091186219537263  0.2224126588053963  0.3545410129871129
  0.2319427332244928  0.0936717098393345  0.0691568155796958
  0.7757624275169590  0.2221254644167274  0.8341548179878160
  0.8866809142312704  0.1092071331571915  0.5904029547437801
  0.4453656097225789  0.2212481013254006  0.3393118163748241
  0.5549300479091315  0.1146198077643419  0.0837424879254129
  0.1090408921905777  0.2220075941596562  0.8423601759222450
  0.2252770745795800  0.1163227285651942  0.5941261375792166
  0.7773358792526324  0.2200710354027606  0.3346171779107152
  0.8710179033014853  0.1014564313938635  0.0826386072910594
  0.4472507580582743  0.2243111297485640  0.8322210622615103
  0.5573519522521480  0.1124707723032330  0.5850457095881438
  0.0897570635112714  0.5179541465501742  0.3254291418326360
  0.2312085701610087  0.4688803248417841  0.0702508664521204
  0.7762956324295160  0.5542395823978836  0.8325909412112082
  0.8865979887998208  0.4427079764508335  0.5824303716758195
  0.4461770034832924  0.5564180711712297  0.3364769860336736
  0.5603663426635919  0.4466691082862440  0.0816830378171503
  0.1042989249533264  0.5511366531961528  0.8295704075805190
  0.2227376939203367  0.4417700886568880  0.5925361487736041
  0.7781740470142537  0.5556408548825402  0.3339122649422777
  0.8854300939580710  0.4419572786978208  0.0811627668998938
  0.4462658858353947  0.5565482979025802  0.8322560997590216
  0.5559266678083929  0.4446282331185287  0.5835126956259913
  0.1003933938917498  0.9019312029971189  0.3535807923758369
  0.2250498252327802  0.7760928718081317  0.1310873959220160
  0.7746065592569096  0.8873934125427496  0.8359897572497630
  0.8812157809175716  0.7740339197837685  0.5870509987241306
  0.4779213050444966  0.9080873622047392  0.3294193523947158
  0.5549853678702448  0.7739439942391542  0.0843087644138265
  0.1032469683400379  0.8878056629858264  0.8291428337970430
  0.2226132355662997  0.7795605646864843  0.6121695359697128
  0.7767552752863054  0.8879170563471988  0.3355999266595191
  0.8876281871826777  0.7763821604021217  0.0821284362347896
  0.4474814035877870  0.8912628953842088  0.8348178379235733
  0.5579503789252342  0.7780338886596923  0.5869212812872107
 
             NaN             NaN             NaN
             NaN             NaN             NaN
             NaN             NaN             NaN
             NaN             NaN             NaN
             NaN             NaN             NaN
             NaN             NaN             NaN
             NaN             NaN             NaN
             NaN             NaN             NaN
             NaN             NaN             NaN
             NaN             NaN             NaN
             NaN             NaN             NaN
             NaN             NaN             NaN
             NaN             NaN             NaN
             NaN             NaN             NaN
             NaN             NaN             NaN
             NaN             NaN             NaN
             NaN             NaN             NaN
             NaN             NaN             NaN
             NaN             NaN             NaN
             NaN             NaN             NaN
             NaN             NaN             NaN
             NaN             NaN             NaN
             NaN             NaN             NaN
             NaN             NaN             NaN
             NaN             NaN             NaN
             NaN             NaN             NaN
             NaN             NaN             NaN
             NaN             NaN             NaN
             NaN             NaN             NaN
             NaN             NaN             NaN
             NaN             NaN             NaN
             NaN             NaN             NaN
             NaN             NaN             NaN
             NaN             NaN             NaN
             NaN             NaN             NaN
             NaN             NaN             NaN
             NaN             NaN             NaN
             NaN             NaN             NaN
             NaN             NaN             NaN
             NaN             NaN             NaN
             NaN             NaN             NaN
             NaN             NaN             NaN
             NaN             NaN             NaN
             NaN             NaN             NaN
             NaN             NaN             NaN
             NaN             NaN             NaN
             NaN             NaN             NaN
             NaN             NaN             NaN
             NaN             NaN             NaN
             NaN             NaN             NaN
             NaN             NaN             NaN
             NaN             NaN             NaN
             NaN             NaN             NaN
             NaN             NaN             NaN
             NaN             NaN             NaN
             NaN             NaN             NaN
             NaN             NaN             NaN
             NaN             NaN             NaN
             NaN             NaN             NaN
             NaN             NaN             NaN
             NaN             NaN             NaN
             NaN             NaN             NaN
             NaN             NaN             NaN
             NaN             NaN             NaN
             NaN             NaN             NaN
             NaN             NaN             NaN
             NaN             NaN             NaN
             NaN             NaN             NaN
             NaN             NaN             NaN
             NaN             NaN             NaN
             NaN             NaN             NaN
             NaN             NaN             NaN
