Al   Hf   N                             
   1.00000000000000     
     9.5148991633436300    0.0110797983780441    0.0107890321470664
    -4.7906823438818122    8.2421974532433104   -0.0010710259103936
    -0.1172123872180423   -0.0580985665658124   10.4201028118347878
   Al   Hf   N 
    34     2    36
Direct
  0.2220144471339784  0.1218416063033111  0.4026893225423522
  0.8843863099749333  0.1089596718629850  0.8219009988416238
  0.7843705010312688  0.2251638508298615  0.5714284565690795
  0.5522329408011620  0.1108174252536534  0.3923049948264781
  0.4462146451678694  0.2131641439683282  0.1425520639764501
  0.2301107822724255  0.1121025382314354  0.8817852804584616
  0.1169539055424205  0.2242622607698849  0.6459388567714655
  0.8727139923948239  0.1042998957740530  0.3277580608229481
  0.7828598684173227  0.2243617350898386  0.0708981526478297
  0.5509888993392915  0.1083730694330339  0.8913407139479195
  0.4455097759927517  0.2161292809453400  0.6407202985219617
  0.2229467156942649  0.4338346766951546  0.4023208660155863
  0.1093414358268827  0.5647736793061411  0.0592921597836777
  0.8850890748649549  0.4413132122000269  0.8200459439038251
  0.7755215325066513  0.5539973531412249  0.5691974615182118
  0.5577509829309488  0.4439971937039253  0.3233790028950090
  0.4420530077949664  0.5528863897285163  0.1380935617395678
  0.2299880954406163  0.4496489149209241  0.8824401164198560
  0.1025279061970506  0.5491405021885380  0.5801510180247723
  0.8857254520955525  0.4413389251383257  0.3191650110222753
  0.7776936763641707  0.5546661836831728  0.0708431065946054
  0.5634251380770495  0.4457945313336463  0.8204585941300118
  0.4442335570100183  0.5556711805014375  0.6399063864586860
  0.1085652803924647  0.8755999838827033  0.0590916219251889
  0.8846004733533200  0.7747189313411855  0.8196456752489361
  0.7762890189284793  0.8873840532668362  0.5703866760472412
  0.5655024408002242  0.7816087664183764  0.3205475930304096
  0.4581707947607058  0.8986975267859469  0.1323449562546452
  0.2147911077295534  0.7741341266058400  0.8162242216480197
  0.1009827425270920  0.8858366996025885  0.5801991119692911
  0.8856940754803945  0.7764739332470952  0.3186822695660653
  0.7763417058452081  0.8869710884199969  0.0699316150007951
  0.5625382909205054  0.7828704920179965  0.8270464340495874
  0.4480247506481136  0.8949046270993666  0.6392225437064368
  0.1234997737962125  0.2251450833015815  0.1281227193113506
  0.2055844934259378  0.7698121216622748  0.3328898601055105
  0.1041067824726953  0.2183045198663373  0.3451390808782107
  0.2398928033691378  0.1018526061726031  0.0652981528861821
  0.7857650818085712  0.2249162239844471  0.8831036387439722
  0.8837808678288763  0.1076172150626176  0.6347002991481173
  0.4357229143480271  0.2118493420700084  0.3317096328016485
  0.5541964648400981  0.1128789777464265  0.0744280793451696
  0.1195217000849962  0.2253386692318524  0.8341563024411478
  0.2260373978405558  0.1176548883879113  0.5889761568592116
  0.7812686937801535  0.2283572396616987  0.3863370895047838
  0.8556822595898479  0.0940771316580282  0.1458383452735998
  0.4465961402281209  0.2162868787785141  0.8255280359445037
  0.5496360268703273  0.1071063019926244  0.5775886944210118
  0.0935174651425365  0.5305286874635594  0.3967709336026241
  0.2363523321253255  0.4655532049856334  0.0648666481674416
  0.7784385891776673  0.5547218545302258  0.8844481199964837
  0.8833009621177095  0.4414566422140752  0.6360529471964645
  0.4350114810474759  0.5522237763759603  0.3326990827281156
  0.5633327646898094  0.4442726843012377  0.1328767740405667
  0.1060436326449226  0.5577372613998797  0.8720441491889802
  0.2257589289586393  0.4406132813238472  0.5888657864504463
  0.7762972977136058  0.5542672979961571  0.3828295658612111
  0.8928132865753617  0.4448902693188302  0.1304553504275284
  0.4455043332591783  0.5556333905901847  0.8298343234776622
  0.5617664964704990  0.4452851319340637  0.6287065825542304
  0.0922503911360546  0.8956687425792929  0.3966897193838059
  0.2274468744747730  0.7793903277391773  0.1160169068634253
  0.7820845257943353  0.8913427115638803  0.8840413463081372
  0.8823754300264175  0.7741920216620306  0.6352923204280483
  0.4715058420667868  0.9098741861890461  0.3170355646729533
  0.5618487219318939  0.7746181648479222  0.1223739207888430
  0.1046073001059565  0.8802096208623560  0.8720138513521816
  0.2138349309962516  0.7736987217543770  0.6264489016795994
  0.7772308417708584  0.8847469472577386  0.3858987727266643
  0.8925136743119427  0.7802235550704374  0.1295647153601297
  0.4458662158385506  0.8941938155009906  0.8291002602892250
  0.5607825135248791  0.7817398338221982  0.6278774944884897
 
             NaN             NaN             NaN
             NaN             NaN             NaN
             NaN             NaN             NaN
             NaN             NaN             NaN
             NaN             NaN             NaN
             NaN             NaN             NaN
             NaN             NaN             NaN
             NaN             NaN             NaN
             NaN             NaN             NaN
             NaN             NaN             NaN
             NaN             NaN             NaN
             NaN             NaN             NaN
             NaN             NaN             NaN
             NaN             NaN             NaN
             NaN             NaN             NaN
             NaN             NaN             NaN
             NaN             NaN             NaN
             NaN             NaN             NaN
             NaN             NaN             NaN
             NaN             NaN             NaN
             NaN             NaN             NaN
             NaN             NaN             NaN
             NaN             NaN             NaN
             NaN             NaN             NaN
             NaN             NaN             NaN
             NaN             NaN             NaN
             NaN             NaN             NaN
             NaN             NaN             NaN
             NaN             NaN             NaN
             NaN             NaN             NaN
             NaN             NaN             NaN
             NaN             NaN             NaN
             NaN             NaN             NaN
             NaN             NaN             NaN
             NaN             NaN             NaN
             NaN             NaN             NaN
             NaN             NaN             NaN
             NaN             NaN             NaN
             NaN             NaN             NaN
             NaN             NaN             NaN
             NaN             NaN             NaN
             NaN             NaN             NaN
             NaN             NaN             NaN
             NaN             NaN             NaN
             NaN             NaN             NaN
             NaN             NaN             NaN
             NaN             NaN             NaN
             NaN             NaN             NaN
             NaN             NaN             NaN
             NaN             NaN             NaN
             NaN             NaN             NaN
             NaN             NaN             NaN
             NaN             NaN             NaN
             NaN             NaN             NaN
             NaN             NaN             NaN
             NaN             NaN             NaN
             NaN             NaN             NaN
             NaN             NaN             NaN
             NaN             NaN             NaN
             NaN             NaN             NaN
             NaN             NaN             NaN
             NaN             NaN             NaN
             NaN             NaN             NaN
             NaN             NaN             NaN
             NaN             NaN             NaN
             NaN             NaN             NaN
             NaN             NaN             NaN
             NaN             NaN             NaN
             NaN             NaN             NaN
             NaN             NaN             NaN
             NaN             NaN             NaN
             NaN             NaN             NaN
