Al   Hf   N                             
   1.00000000000000     
     9.5044932908183117    0.0095013536636509    0.0167031449527551
    -4.7514979404223228    8.2346232781661541   -0.0050927490033955
    -0.0731659084591768   -0.0246197988446674   10.4169788269430992
   Al   Hf   N 
    34     2    36
Direct
  0.2226154092528407  0.1219447761156375  0.4030314720993224
  0.8845436741968188  0.1087853622157832  0.8225611068857028
  0.7867412935217546  0.2269099577156404  0.5727369313928160
  0.5556644821709651  0.1171343965356830  0.3958797402269491
  0.4445805495873666  0.2102019647828788  0.1431197075994370
  0.2296220209252934  0.1124036250501924  0.8824237968723136
  0.1178087037821821  0.2244324542714931  0.6464435082503589
  0.8744213382642405  0.1035404124462888  0.3285401631832464
  0.7813043345704817  0.2218204170780469  0.0734449124658327
  0.5553785987415837  0.1144510589692309  0.8906621190557596
  0.4463714981575498  0.2160847638931462  0.6435654030993769
  0.2241068870336480  0.4349546852148335  0.4043133254818835
  0.1034926502766060  0.5604042908807618  0.0548473429797690
  0.8858759252983914  0.4426327275599670  0.8189974959332663
  0.7747970395971344  0.5535283835101981  0.5692320950755692
  0.5558865977974964  0.4435888330157208  0.3237348994536391
  0.4444139056854840  0.5557807760786428  0.1344438120498925
  0.2308696845694383  0.4510628760011687  0.8796060013360190
  0.1044441938411817  0.5527787484246656  0.5808414849357655
  0.8883938557370707  0.4463001272112073  0.3195707981265700
  0.7768733832760414  0.5535015765698837  0.0706156446083147
  0.5640048594136119  0.4477400923555245  0.8215936738921725
  0.4454500752520002  0.5560885709305934  0.6389183185311936
  0.1024799695228484  0.8752227212377459  0.0563782628191958
  0.8846513911001491  0.7751983558064802  0.8197128900588319
  0.7787120351740786  0.8885758245873684  0.5702270429621237
  0.5609314494526590  0.7820315240916724  0.3227659748355942
  0.4439411598666848  0.8803573351777010  0.0634557804889666
  0.2229501390408922  0.7782522459860208  0.8146148704389314
  0.1038321010199330  0.8857912679940828  0.5805299266342372
  0.8867953691010984  0.7729337783486461  0.3192399776886471
  0.7734428198924267  0.8872758988579461  0.0719825641037883
  0.5620804896206570  0.7872662394919617  0.8192726588649469
  0.4460003658727545  0.8845614279449010  0.5736649661165973
  0.1259573349246872  0.2300680882957757  0.1291571511488996
  0.2076778288098992  0.7710831236686323  0.3192393804926034
  0.1048879713915597  0.2194705534054434  0.3469713507473209
  0.2375351721480269  0.1005652285114976  0.0661775598430793
  0.7866717093412120  0.2260989082134641  0.8836812582803443
  0.8857030296664301  0.1081932123612704  0.6350270427440584
  0.4352352642164222  0.2095599100018910  0.3309325649099751
  0.5536520961606334  0.1100186773392739  0.0787803748139032
  0.1194031693608429  0.2255796651707867  0.8347338691431150
  0.2277923797956832  0.1179040620591547  0.5891521913154150
  0.7827692821600407  0.2290385200641381  0.3853173177060787
  0.8587686097535894  0.0944789833089482  0.1465141336381446
  0.4462974598380416  0.2171055789289389  0.8277960148356056
  0.5556177112315265  0.1135276192183673  0.5838238752441148
  0.0977097272888638  0.5361396881604338  0.3964258339655283
  0.2387177731134086  0.4701947880589819  0.0630807325397364
  0.7788496543458279  0.5549874861584296  0.8845548353236578
  0.8854461890677190  0.4437811991306844  0.6353362767504549
  0.4367385073918262  0.5524802722319058  0.3388829912008170
  0.5618713614186429  0.4437671804115759  0.1321143749831251
  0.1061602102006146  0.5586962485463920  0.8690086418841397
  0.2259867909216750  0.4423936125178834  0.5911382592423563
  0.7721361267687007  0.5511984557552825  0.3842303313476437
  0.8914764742599560  0.4430367156724536  0.1299169933235473
  0.4476450053323889  0.5585824442973519  0.8311156515031638
  0.5624419444022977  0.4457020952116929  0.6310395308136301
  0.0961415462593373  0.8948542178510139  0.3959230695731450
  0.2226195043135796  0.7770071241866466  0.1121752639243552
  0.7794337459654644  0.8906439817085638  0.8848697242621355
  0.8839989234627286  0.7744925696090161  0.6348900628467956
  0.4547905657786881  0.8883648153051370  0.3865015775722525
  0.5573136555709320  0.7815625815108578  0.1334602749215771
  0.1054323452125127  0.8806835892787932  0.8700471483637349
  0.2230392671574219  0.7784594150837585  0.6284444217589742
  0.7762022677835378  0.8831090592631943  0.3855014934609599
  0.8882808576451088  0.7785520750923509  0.1286606919017344
  0.4421109039485167  0.8833178177216998  0.8766840243531777
  0.5619998136035608  0.7857515394593552  0.6328897119468627
 
             NaN             NaN             NaN
             NaN             NaN             NaN
             NaN             NaN             NaN
             NaN             NaN             NaN
             NaN             NaN             NaN
             NaN             NaN             NaN
             NaN             NaN             NaN
             NaN             NaN             NaN
             NaN             NaN             NaN
             NaN             NaN             NaN
             NaN             NaN             NaN
             NaN             NaN             NaN
             NaN             NaN             NaN
             NaN             NaN             NaN
             NaN             NaN             NaN
             NaN             NaN             NaN
             NaN             NaN             NaN
             NaN             NaN             NaN
             NaN             NaN             NaN
             NaN             NaN             NaN
             NaN             NaN             NaN
             NaN             NaN             NaN
             NaN             NaN             NaN
             NaN             NaN             NaN
             NaN             NaN             NaN
             NaN             NaN             NaN
             NaN             NaN             NaN
             NaN             NaN             NaN
             NaN             NaN             NaN
             NaN             NaN             NaN
             NaN             NaN             NaN
             NaN             NaN             NaN
             NaN             NaN             NaN
             NaN             NaN             NaN
             NaN             NaN             NaN
             NaN             NaN             NaN
             NaN             NaN             NaN
             NaN             NaN             NaN
             NaN             NaN             NaN
             NaN             NaN             NaN
             NaN             NaN             NaN
             NaN             NaN             NaN
             NaN             NaN             NaN
             NaN             NaN             NaN
             NaN             NaN             NaN
             NaN             NaN             NaN
             NaN             NaN             NaN
             NaN             NaN             NaN
             NaN             NaN             NaN
             NaN             NaN             NaN
             NaN             NaN             NaN
             NaN             NaN             NaN
             NaN             NaN             NaN
             NaN             NaN             NaN
             NaN             NaN             NaN
             NaN             NaN             NaN
             NaN             NaN             NaN
             NaN             NaN             NaN
             NaN             NaN             NaN
             NaN             NaN             NaN
             NaN             NaN             NaN
             NaN             NaN             NaN
             NaN             NaN             NaN
             NaN             NaN             NaN
             NaN             NaN             NaN
             NaN             NaN             NaN
             NaN             NaN             NaN
             NaN             NaN             NaN
             NaN             NaN             NaN
             NaN             NaN             NaN
             NaN             NaN             NaN
             NaN             NaN             NaN
