Al   Hf   N                             
   1.00000000000000     
     9.4914820731674325    0.0078763727180437    0.0036779560948696
    -4.7465356943174593    8.2107187936855723    0.0014843393062274
     0.0004413797036692    0.0099256200251492   10.1206352758728482
   Al   Hf   N 
    34     2    36
Direct
  0.2258109492694812  0.1113815765676445  0.3254298811997770
  0.8844478321077386  0.1082301965653269  0.8101817235518628
  0.7779379423373636  0.2238810783829104  0.5628989695996839
  0.5607035359451658  0.1157410878118122  0.3134774621271381
  0.4437741610089945  0.2246772201760636  0.0643279596564546
  0.2260220797350019  0.1133371462476370  0.8131853026738456
  0.1113839507677106  0.2218416426969915  0.5667604844095195
  0.8811918037283062  0.1070470738922565  0.3181862863446716
  0.7715591104179401  0.2196673544382932  0.0636374451714595
  0.5572214918072657  0.1115399807637106  0.8132589157838639
  0.4474690917896606  0.2235534554244562  0.5672712882441090
  0.2258364641502811  0.4474051322565833  0.3253486526603007
  0.1080927278548750  0.5590268638662519  0.0596133653170608
  0.8861333476540116  0.4420067989758253  0.8169852809639601
  0.7770141280773066  0.5546815094943258  0.5678654183628860
  0.5564853366926116  0.4446817644059134  0.3182202115060663
  0.4437166607272358  0.5517821218916354  0.0643142795172284
  0.2260621594847677  0.4445194888104317  0.8133274726359243
  0.1076164638428322  0.5489488739505175  0.5763425010567527
  0.8897049535577836  0.4492885170576087  0.3131079643098854
  0.7774373254857071  0.5550963267649791  0.0663134178121474
  0.5556293755754482  0.4438912898130162  0.8165929751705510
  0.4474113330991628  0.5562453021225902  0.5672729874871200
  0.1080398424700301  0.8817668273365118  0.0594481678319764
  0.8860038786780002  0.7761564457801845  0.8169133319054220
  0.7778645205794176  0.8863939574086128  0.5628395030386624
  0.5606605609895796  0.7778190888515752  0.3134425542354079
  0.4499614964083565  0.8913303203025120  0.0591828857350636
  0.2246506855862252  0.7782716356675530  0.8150452475708633
  0.1075349030490237  0.8909089450186805  0.5763739864942934
  0.8896658827247897  0.7733235336526072  0.3130609349195900
  0.7715384666489203  0.8846700634119333  0.0635830565152009
  0.5571653478408977  0.7778326137604072  0.8132205576316907
  0.4508128987100661  0.8915996576366492  0.5669525603769451
  0.1245039162328298  0.2286142210993775  0.0763419592276385
  0.2080157269523691  0.7705852623610518  0.3178714205035233
  0.1111231153060674  0.2220016299588571  0.3659220887280820
  0.2303732861221513  0.0887346628872982  0.1385259892134543
  0.7772400833891920  0.2200805801744709  0.8735100092161513
  0.8878030922816288  0.1100254143034332  0.6194417716010412
  0.4468280396394534  0.2227288382345582  0.3778499640698624
  0.5538028113319595  0.1113585333687933  0.1230295120928691
  0.1065759114495877  0.2190868353539815  0.8624107724200860
  0.2252744091596783  0.1142551893921542  0.6252237004638574
  0.7787460819624329  0.2261093120922190  0.3736661872481631
  0.8687122877740296  0.1007426189366468  0.1282486152402391
  0.4463806951945943  0.2210137436833480  0.8730156835602019
  0.5575030273636518  0.1121347969726979  0.6242771233438077
  0.1001143173423366  0.5311712569593467  0.3917902081707030
  0.2304411399712317  0.4743938569239026  0.1385350861751678
  0.7771589243992251  0.5545820570907547  0.8762819390397711
  0.8859147015071456  0.4425053535425422  0.6288159107664341
  0.4468264021651209  0.5568448551041670  0.3778556710090692
  0.5593253917946962  0.4460273570778510  0.1291081350323807
  0.1111336593392181  0.5531299180490380  0.8698315964783760
  0.2252315053757709  0.4431775937633712  0.6253277251030186
  0.7740580553099318  0.5534171817170302  0.3792706934552511
  0.8876447645570411  0.4415323263908413  0.1202739126708040
  0.4464679278382153  0.5574964970327312  0.8729877268777784
  0.5558964453950400  0.4440882281920217  0.6270719507957478
  0.0999758939237522  0.9017658886307819  0.3918500952290211
  0.2268995004928251  0.7798378697858613  0.1038931174050945
  0.7771493708178435  0.8891445828307983  0.8734648077953375
  0.8858124272078264  0.7756362512094436  0.6287761688334518
  0.4626609049579781  0.8977122074139813  0.3771301020139982
  0.5538099486258886  0.7751683275443950  0.1230026278273361
  0.1110384175643118  0.8897643523283705  0.8696324197559031
  0.2235162640098780  0.7778666762423004  0.6209742176304569
  0.7787019860335124  0.8854073863021680  0.3736163086453519
  0.8876318058269054  0.7789012896950174  0.1201801896941505
  0.4474742755490488  0.8897890559366821  0.8692451687638807
  0.5574408040499348  0.7776317243646981  0.6242440765871410
 
             NaN             NaN             NaN
             NaN             NaN             NaN
             NaN             NaN             NaN
             NaN             NaN             NaN
             NaN             NaN             NaN
             NaN             NaN             NaN
             NaN             NaN             NaN
             NaN             NaN             NaN
             NaN             NaN             NaN
             NaN             NaN             NaN
             NaN             NaN             NaN
             NaN             NaN             NaN
             NaN             NaN             NaN
             NaN             NaN             NaN
             NaN             NaN             NaN
             NaN             NaN             NaN
             NaN             NaN             NaN
             NaN             NaN             NaN
             NaN             NaN             NaN
             NaN             NaN             NaN
             NaN             NaN             NaN
             NaN             NaN             NaN
             NaN             NaN             NaN
             NaN             NaN             NaN
             NaN             NaN             NaN
             NaN             NaN             NaN
             NaN             NaN             NaN
             NaN             NaN             NaN
             NaN             NaN             NaN
             NaN             NaN             NaN
             NaN             NaN             NaN
             NaN             NaN             NaN
             NaN             NaN             NaN
             NaN             NaN             NaN
             NaN             NaN             NaN
             NaN             NaN             NaN
             NaN             NaN             NaN
             NaN             NaN             NaN
             NaN             NaN             NaN
             NaN             NaN             NaN
             NaN             NaN             NaN
             NaN             NaN             NaN
             NaN             NaN             NaN
             NaN             NaN             NaN
             NaN             NaN             NaN
             NaN             NaN             NaN
             NaN             NaN             NaN
             NaN             NaN             NaN
             NaN             NaN             NaN
             NaN             NaN             NaN
             NaN             NaN             NaN
             NaN             NaN             NaN
             NaN             NaN             NaN
             NaN             NaN             NaN
             NaN             NaN             NaN
             NaN             NaN             NaN
             NaN             NaN             NaN
             NaN             NaN             NaN
             NaN             NaN             NaN
             NaN             NaN             NaN
             NaN             NaN             NaN
             NaN             NaN             NaN
             NaN             NaN             NaN
             NaN             NaN             NaN
             NaN             NaN             NaN
             NaN             NaN             NaN
             NaN             NaN             NaN
             NaN             NaN             NaN
             NaN             NaN             NaN
             NaN             NaN             NaN
             NaN             NaN             NaN
             NaN             NaN             NaN
