Al   Hf   N                             
   1.00000000000000     
     9.4844121349591859    0.0064054238967547    0.0042563829752152
    -4.7370996362223519    8.2043812954689770    0.0003750192099842
     0.0044790246946512    0.0021194832893427   10.1367119436263788
   Al   Hf   N 
    34     2    36
Direct
  0.2253475883725516  0.1111842378638839  0.3082427790212021
  0.8840350250031145  0.1082560025655307  0.7910174903097370
  0.7773681459862416  0.2237954912537769  0.5448404078769092
  0.5604050535587589  0.1154695298146651  0.2954250639772130
  0.4429710210163538  0.2249992118176064  0.0467013146948081
  0.2256224448411580  0.1134890420131600  0.7939449115420156
  0.1108054681772498  0.2216412077170581  0.5467026681773700
  0.8814112188287271  0.1069439257194000  0.3009405757865591
  0.7714335723673362  0.2192971127925996  0.0460471181904141
  0.5568324492581662  0.1115527589235326  0.7955851535073717
  0.4471778136922857  0.2234567128357027  0.5493750358373299
  0.2253474836571959  0.4466399456684778  0.3082427887187596
  0.1078061590557539  0.5583509860377222  0.0417211372456574
  0.8857444559627264  0.4418234584661587  0.7993172546178409
  0.7768186646974353  0.5546477955815279  0.5505024884527071
  0.5567122982441836  0.4445945260882059  0.3007791449040979
  0.4429708559778647  0.5504482387333151  0.0467013104252394
  0.2256224638525634  0.4446102398588065  0.7939449106843867
  0.1072338814395942  0.5491783211886841  0.5584916424762656
  0.8895728111634285  0.4492337483704009  0.2953039740709741
  0.7775883449867776  0.5550325424431004  0.0485159551934002
  0.5551711148063649  0.4438240630637172  0.7987966213688751
  0.4471777450984528  0.5561980953933338  0.5493750054600133
  0.1078061549769556  0.8819320089962208  0.0417211600232367
  0.8857444458133619  0.7763980754556992  0.7993172530960472
  0.7773679933412623  0.8860493838571197  0.5448404160095921
  0.5604049921846109  0.7774122193190329  0.2954250372618291
  0.4497125033851684  0.8910945785251412  0.0410469710013874
  0.2242456024645925  0.7783612508751683  0.7977245082170775
  0.1072338658445733  0.8905326295271990  0.5584916071376861
  0.8895726823839025  0.7728156675826988  0.2953040180054253
  0.7714334917498450  0.8846129310218990  0.0460471460028018
  0.5568324225936837  0.7777565743752184  0.7955851887258490
  0.4502580872072035  0.8913675394504740  0.5492626128479849
  0.1242425500866736  0.2283596035627310  0.0561363521639620
  0.2079923439806116  0.7702345792000369  0.2991508932387607
  0.1107808664755033  0.2216286809512255  0.3506692823996149
  0.2292921931223964  0.0887833076495897  0.1216223297542627
  0.7769892951836799  0.2198367139943733  0.8559405937611404
  0.8874331701965104  0.1099550169727662  0.6008623749468490
  0.4466796134047906  0.2225529532070888  0.3602260911991029
  0.5533126643978657  0.1111848211836883  0.1051156393404838
  0.1062268703648486  0.2193518379609236  0.8434938508449527
  0.2247396324327849  0.1142823923838936  0.6065744446956076
  0.7784482259382645  0.2259750349871689  0.3558394945580531
  0.8696447457804019  0.1010606960262267  0.1113274899582899
  0.4455592886901596  0.2208874470446949  0.8552171771958499
  0.5571268388598806  0.1120477593581743  0.6067460919911832
  0.0998919435637614  0.5313241777435704  0.3742181806013249
  0.2292919981062250  0.4729856199567111  0.1216223404975449
  0.7768109658221669  0.5546439548830900  0.8587232646187161
  0.8855827683807710  0.4423275111963474  0.6113995858527741
  0.4466795706820763  0.5566032842850808  0.3602260607310180
  0.5600157013492582  0.4462462189633033  0.1119763233119992
  0.1107973887790124  0.5528341729998830  0.8521183617218580
  0.2247395873653369  0.4429342928263922  0.6065744393582824
  0.7740706728961410  0.5532736444870590  0.3621799497634018
  0.8875505301537907  0.4412556887761545  0.1025872005664881
  0.4455592776552449  0.5571486664302436  0.8552172030192826
  0.5556099330517787  0.4440435308292456  0.6095307472692894
  0.0998918379500675  0.9010443647476719  0.3742181307371645
  0.2265614319279922  0.7795192093191654  0.0855169971245826
  0.7769892609894349  0.8896294446074434  0.8559406318720431
  0.8855827579742318  0.7757322967867228  0.6113995923401545
  0.4622798159778331  0.8973782226743682  0.3595194575819600
  0.5533125611632485  0.7746044590675859  0.1051156021940846
  0.1107973537681390  0.8904400441536623  0.8521183991020115
  0.2232161355913493  0.7778466355377862  0.6040557870812855
  0.7784481285981839  0.8849497343214970  0.3558395000107415
  0.8875505759559814  0.7787716543127520  0.1025872803166631
  0.4471697762098601  0.8898233051498586  0.8515976286023784
  0.5571267480504928  0.7775561013497978  0.6067461285596273
 
             NaN             NaN             NaN
             NaN             NaN             NaN
             NaN             NaN             NaN
             NaN             NaN             NaN
             NaN             NaN             NaN
             NaN             NaN             NaN
             NaN             NaN             NaN
             NaN             NaN             NaN
             NaN             NaN             NaN
             NaN             NaN             NaN
             NaN             NaN             NaN
             NaN             NaN             NaN
             NaN             NaN             NaN
             NaN             NaN             NaN
             NaN             NaN             NaN
             NaN             NaN             NaN
             NaN             NaN             NaN
             NaN             NaN             NaN
             NaN             NaN             NaN
             NaN             NaN             NaN
             NaN             NaN             NaN
             NaN             NaN             NaN
             NaN             NaN             NaN
             NaN             NaN             NaN
             NaN             NaN             NaN
             NaN             NaN             NaN
             NaN             NaN             NaN
             NaN             NaN             NaN
             NaN             NaN             NaN
             NaN             NaN             NaN
             NaN             NaN             NaN
             NaN             NaN             NaN
             NaN             NaN             NaN
             NaN             NaN             NaN
             NaN             NaN             NaN
             NaN             NaN             NaN
             NaN             NaN             NaN
             NaN             NaN             NaN
             NaN             NaN             NaN
             NaN             NaN             NaN
             NaN             NaN             NaN
             NaN             NaN             NaN
             NaN             NaN             NaN
             NaN             NaN             NaN
             NaN             NaN             NaN
             NaN             NaN             NaN
             NaN             NaN             NaN
             NaN             NaN             NaN
             NaN             NaN             NaN
             NaN             NaN             NaN
             NaN             NaN             NaN
             NaN             NaN             NaN
             NaN             NaN             NaN
             NaN             NaN             NaN
             NaN             NaN             NaN
             NaN             NaN             NaN
             NaN             NaN             NaN
             NaN             NaN             NaN
             NaN             NaN             NaN
             NaN             NaN             NaN
             NaN             NaN             NaN
             NaN             NaN             NaN
             NaN             NaN             NaN
             NaN             NaN             NaN
             NaN             NaN             NaN
             NaN             NaN             NaN
             NaN             NaN             NaN
             NaN             NaN             NaN
             NaN             NaN             NaN
             NaN             NaN             NaN
             NaN             NaN             NaN
             NaN             NaN             NaN
