Al   Hf   N                             
   1.00000000000000     
     9.5324741133626425    0.0077642356851490    0.0217107643761087
    -4.7699191090241309    8.2515041977196120   -0.0086418143137643
    -0.0689251625385069   -0.0205928577125563   10.2289467668958256
   Al   Hf   N 
    34     2    36
Direct
  0.2238737903653107  0.1221513011447432  0.4001112372405408
  0.8842728450274362  0.1076741989027394  0.8270702481849427
  0.7795676625092058  0.2224855209215844  0.5724360233128167
  0.5622189802650086  0.1092418502246712  0.3244829804269966
  0.4398525957658080  0.2163595641337106  0.1419454929019419
  0.2337339435666868  0.1120404769840974  0.8834982308926173
  0.1167425291790383  0.2226680804361429  0.6487195695688128
  0.8748483034582156  0.1016878504568056  0.3293153070625977
  0.7723518186422509  0.2170418666452984  0.0732538200422217
  0.5616288813309268  0.1072730954174174  0.8220579969917690
  0.4458125765385370  0.2219855793033134  0.6401331496451502
  0.2171051717046494  0.4311421807902688  0.4001973125820276
  0.1038110021836772  0.5607080560669299  0.0586269491401107
  0.8835637527034850  0.4416384179991382  0.8224297151165546
  0.7771019669085468  0.5542865839432235  0.5712295315686434
  0.5537203106052567  0.4478108636570955  0.3251705385706316
  0.4565060509685986  0.5652846530534964  0.0681513412476716
  0.2286935070246484  0.4519146041236792  0.8625159809681857
  0.1045614876570339  0.5513532226530982  0.5884673098804967
  0.8871046994716754  0.4450314266568323  0.3210984626934263
  0.7761339349011848  0.5529895094321201  0.0733525181968574
  0.5630524688502451  0.4514127705942694  0.8226890646143814
  0.4551408059476131  0.5616496960132138  0.5798836179658378
  0.1035023395967144  0.8761313134568303  0.0594525449317410
  0.8858694143512640  0.7751384421021744  0.8217460978376334
  0.7797884599605723  0.8888918321659112  0.5730682651212636
  0.5583451675094803  0.7750648118835912  0.3230532279437062
  0.4476173380580872  0.8894549909037396  0.0675848216285235
  0.2247360723207590  0.7800022756545127  0.8167220222859458
  0.1052118883669225  0.8868593948341832  0.5821185481898556
  0.8867096012506304  0.7731985845166692  0.3207389942658276
  0.7719574927458052  0.8851370438982634  0.0744782778799408
  0.5607201912857976  0.7810537562010220  0.8208362605792545
  0.4515702324906620  0.8910587640697702  0.5738721508870509
  0.1188925498841698  0.2322248940809218  0.1196338689132666
  0.2075733597578987  0.7684429071752148  0.3243824498281188
  0.1046756623995273  0.2188999513625536  0.3453856298945909
  0.2364950802737743  0.0998215665357049  0.0681605007907661
  0.7788642150306313  0.2212338357565225  0.8846036252346838
  0.8863177045900323  0.1087336836606717  0.6356514530181233
  0.4370577115081499  0.2159752316007664  0.3361095274179014
  0.5559322530088844  0.1057730968045178  0.1330588037074588
  0.1179857640116998  0.2223311881584237  0.8422614293309751
  0.2276080268064332  0.1184776341593499  0.5899008854308812
  0.7772600556315040  0.2244701094251979  0.3856203226745356
  0.8550618246225371  0.0914287960242462  0.1448249272781311
  0.4484304776829562  0.2222776687734060  0.8315723558421040
  0.5613544615361371  0.1080283332290657  0.6315278203423258
  0.0952385885382656  0.5318414231411640  0.4010941872223335
  0.2367262964858775  0.4763516118425914  0.0795149268962401
  0.7791558273653205  0.5555266443325286  0.8851230497968318
  0.8829317910007027  0.4413052012759393  0.6362109088956134
  0.4452926021356123  0.5560661174040727  0.3892085954942239
  0.5571914743674978  0.4492869615368820  0.1330077396176171
  0.1064709696325991  0.5591139654956373  0.8681876935033324
  0.2274584192711178  0.4457881757301292  0.6125643349055008
  0.7725215715516245  0.5517215113148624  0.3837423375710892
  0.8874897573919630  0.4405357710745741  0.1293306841793609
  0.4574914642584734  0.5629594698792542  0.8776621507534871
  0.5624726783195148  0.4514131890257553  0.6330057773564682
  0.0968440086224288  0.8955300507783647  0.3941753040725136
  0.2235214072688407  0.7795417677643114  0.1136222836643038
  0.7794341743345372  0.8891424318191296  0.8850747295585283
  0.8855252233314969  0.7749496053625229  0.6349578018069935
  0.4599196208931994  0.8932475461680515  0.3864769880117881
  0.5543909408015157  0.7768321747712487  0.1341676068435107
  0.1068122450441167  0.8811988248743080  0.8694759708718923
  0.2254202667571535  0.7803102287954883  0.6266189489035794
  0.7753554490924586  0.8815355060814530  0.3859148747426799
  0.8881772108959706  0.7777977218532718  0.1293625949510853
  0.4463763941320836  0.8876712170176090  0.8788996327053480
  0.5600402155737307  0.7809012160689712  0.6344747640927497
 
             NaN             NaN             NaN
             NaN             NaN             NaN
             NaN             NaN             NaN
             NaN             NaN             NaN
             NaN             NaN             NaN
             NaN             NaN             NaN
             NaN             NaN             NaN
             NaN             NaN             NaN
             NaN             NaN             NaN
             NaN             NaN             NaN
             NaN             NaN             NaN
             NaN             NaN             NaN
             NaN             NaN             NaN
             NaN             NaN             NaN
             NaN             NaN             NaN
             NaN             NaN             NaN
             NaN             NaN             NaN
             NaN             NaN             NaN
             NaN             NaN             NaN
             NaN             NaN             NaN
             NaN             NaN             NaN
             NaN             NaN             NaN
             NaN             NaN             NaN
             NaN             NaN             NaN
             NaN             NaN             NaN
             NaN             NaN             NaN
             NaN             NaN             NaN
             NaN             NaN             NaN
             NaN             NaN             NaN
             NaN             NaN             NaN
             NaN             NaN             NaN
             NaN             NaN             NaN
             NaN             NaN             NaN
             NaN             NaN             NaN
             NaN             NaN             NaN
             NaN             NaN             NaN
             NaN             NaN             NaN
             NaN             NaN             NaN
             NaN             NaN             NaN
             NaN             NaN             NaN
             NaN             NaN             NaN
             NaN             NaN             NaN
             NaN             NaN             NaN
             NaN             NaN             NaN
             NaN             NaN             NaN
             NaN             NaN             NaN
             NaN             NaN             NaN
             NaN             NaN             NaN
             NaN             NaN             NaN
             NaN             NaN             NaN
             NaN             NaN             NaN
             NaN             NaN             NaN
             NaN             NaN             NaN
             NaN             NaN             NaN
             NaN             NaN             NaN
             NaN             NaN             NaN
             NaN             NaN             NaN
             NaN             NaN             NaN
             NaN             NaN             NaN
             NaN             NaN             NaN
             NaN             NaN             NaN
             NaN             NaN             NaN
             NaN             NaN             NaN
             NaN             NaN             NaN
             NaN             NaN             NaN
             NaN             NaN             NaN
             NaN             NaN             NaN
             NaN             NaN             NaN
             NaN             NaN             NaN
             NaN             NaN             NaN
             NaN             NaN             NaN
             NaN             NaN             NaN
