Al   Hf   N                             
   1.00000000000000     
     9.5189752984688401    0.0086790910800003    0.0155311347819267
    -4.7596035404998558    8.2506767771921918   -0.0047031254606715
    -0.0629459199289031   -0.0039240931520528   10.2144297156231527
   Al   Hf   N 
    34     2    36
Direct
  0.2233358971120865  0.1226515897399771  0.3991124707039900
  0.8833758818011200  0.1076750367870734  0.8271690707192160
  0.7798201474693466  0.2229814061689819  0.5725220140263185
  0.5624272425278164  0.1094634341855633  0.3245026479986604
  0.4403566784862238  0.2163071407173608  0.1414474563674596
  0.2342697195611025  0.1116104639604179  0.8839357948010559
  0.1153255925001757  0.2211390110910561  0.6459119953093458
  0.8762733675987056  0.1018764668237591  0.3289522002930862
  0.7739114325975993  0.2183799565580046  0.0725106210456182
  0.5612879535707277  0.1073027741283050  0.8217910785398773
  0.4459738715278444  0.2226965274278697  0.6400448921453187
  0.2227576117538858  0.4416578087256588  0.3470493397870428
  0.1069236408159450  0.5565309960444107  0.0627644184107412
  0.8852012240172462  0.4419098807623650  0.8239820415373863
  0.7771069664815926  0.5544320136990591  0.5723410199936277
  0.5550825883305752  0.4477556382107730  0.3257891341663495
  0.4519885468942617  0.5640188956943230  0.0720977289684513
  0.2301796233118082  0.4540318373108541  0.8283577165896426
  0.1069152934239894  0.5490797990468044  0.5859645341410312
  0.8878908094110843  0.4455240986494810  0.3216804761977970
  0.7760375008625265  0.5528908525830480  0.0738299506210493
  0.5617179393765690  0.4514339965310578  0.8242768222880228
  0.4498580564164585  0.5589444188828455  0.5779514790243767
  0.1039776324408778  0.8765420157552144  0.0596160480004201
  0.8858284060593630  0.7750167565000957  0.8217036413050484
  0.7787543306797623  0.8878135311625081  0.5733679522977694
  0.5589505685434975  0.7758575861240948  0.3229535846182642
  0.4480184228459159  0.8904117487918227  0.0677871420266749
  0.2244713277452236  0.7788481270328850  0.8182146961353244
  0.1053639281308350  0.8862901316401715  0.5822195951372210
  0.8868435017775889  0.7732451182016983  0.3209547367905159
  0.7710024708535520  0.8832137572446738  0.0742832217127774
  0.5594430829990191  0.7799551609377091  0.8219587321311688
  0.4511325576026111  0.8906506728462510  0.5742864029629695
  0.1103440189281097  0.2309411153440434  0.1078060942853288
  0.2076965048997289  0.7690083180791840  0.3235567007354413
  0.1056434526158258  0.2182496252064206  0.3411759586751750
  0.2373159162296361  0.1004761034366795  0.0684536589912295
  0.7777125492100905  0.2209614925093689  0.8838287595034088
  0.8861895881839964  0.1083587867071128  0.6355583017455361
  0.4370518852768063  0.2162750065726173  0.3359777707394443
  0.5569051674556694  0.1062932305947447  0.1330710057170285
  0.1165561851426697  0.2213165127224735  0.8472416680178320
  0.2274631517694658  0.1186196600089080  0.5894413689515484
  0.7777770495356287  0.2242359257763367  0.3854507155724101
  0.8542226351144697  0.0896250873914107  0.1434346385781465
  0.4483749069315927  0.2225348955682844  0.8314089790669504
  0.5611650115082238  0.1081100025000878  0.6310554191006472
  0.0983409108134357  0.5303544065178777  0.4017489422688199
  0.2405343166016718  0.4821578415462114  0.1319521587579650
  0.7788926232020437  0.5554771713153530  0.8852067614700732
  0.8847556526328695  0.4420324785314749  0.6368738513098531
  0.4452528223461459  0.5558297657189916  0.3897665080149301
  0.5565520311739773  0.4492813448410417  0.1334729497755636
  0.1099931414923946  0.5569423187735959  0.8742331293548058
  0.2295940561902330  0.4501111078467909  0.6377017536910964
  0.7730723411888578  0.5518147828728466  0.3846961306637958
  0.8869379858372206  0.4408135857198334  0.1302772317449095
  0.4508563248291723  0.5600128494579033  0.8831650231707384
  0.5614871338220919  0.4523166576045579  0.6337124158450892
  0.0970899738636527  0.8954571900460250  0.3941384326679929
  0.2236340304839541  0.7798972462983953  0.1128915638145601
  0.7787731256035567  0.8884238444968388  0.8848659165159312
  0.8855820031083794  0.7750352789977908  0.6350021448959271
  0.4598800849111269  0.8931765418693347  0.3866003583030984
  0.5552085698224932  0.7778468662796866  0.1338734566705129
  0.1065372421022917  0.8808096383855609  0.8694019342949307
  0.2248194332995403  0.7789366235730557  0.6272203249798377
  0.7755564572528031  0.8818719887366087  0.3860608939594602
  0.8882520568109977  0.7775139774079637  0.1295509640265543
  0.4464918842040060  0.8880401061022365  0.8789295446946078
  0.5588789874003918  0.7792117840713851  0.6349410091220369
 
             NaN             NaN             NaN
             NaN             NaN             NaN
             NaN             NaN             NaN
             NaN             NaN             NaN
             NaN             NaN             NaN
             NaN             NaN             NaN
             NaN             NaN             NaN
             NaN             NaN             NaN
             NaN             NaN             NaN
             NaN             NaN             NaN
             NaN             NaN             NaN
             NaN             NaN             NaN
             NaN             NaN             NaN
             NaN             NaN             NaN
             NaN             NaN             NaN
             NaN             NaN             NaN
             NaN             NaN             NaN
             NaN             NaN             NaN
             NaN             NaN             NaN
             NaN             NaN             NaN
             NaN             NaN             NaN
             NaN             NaN             NaN
             NaN             NaN             NaN
             NaN             NaN             NaN
             NaN             NaN             NaN
             NaN             NaN             NaN
             NaN             NaN             NaN
             NaN             NaN             NaN
             NaN             NaN             NaN
             NaN             NaN             NaN
             NaN             NaN             NaN
             NaN             NaN             NaN
             NaN             NaN             NaN
             NaN             NaN             NaN
             NaN             NaN             NaN
             NaN             NaN             NaN
             NaN             NaN             NaN
             NaN             NaN             NaN
             NaN             NaN             NaN
             NaN             NaN             NaN
             NaN             NaN             NaN
             NaN             NaN             NaN
             NaN             NaN             NaN
             NaN             NaN             NaN
             NaN             NaN             NaN
             NaN             NaN             NaN
             NaN             NaN             NaN
             NaN             NaN             NaN
             NaN             NaN             NaN
             NaN             NaN             NaN
             NaN             NaN             NaN
             NaN             NaN             NaN
             NaN             NaN             NaN
             NaN             NaN             NaN
             NaN             NaN             NaN
             NaN             NaN             NaN
             NaN             NaN             NaN
             NaN             NaN             NaN
             NaN             NaN             NaN
             NaN             NaN             NaN
             NaN             NaN             NaN
             NaN             NaN             NaN
             NaN             NaN             NaN
             NaN             NaN             NaN
             NaN             NaN             NaN
             NaN             NaN             NaN
             NaN             NaN             NaN
             NaN             NaN             NaN
             NaN             NaN             NaN
             NaN             NaN             NaN
             NaN             NaN             NaN
             NaN             NaN             NaN
