Al   Hf   N                             
   1.00000000000000     
     9.5164459467247617    0.0112113354375769    0.0102961894132590
    -4.7899861426755992    8.2415130385598854   -0.0007358823193101
    -0.1183509048684952   -0.0587066156469066   10.4129745600085197
   Al   Hf   N 
    34     2    36
Direct
  0.2220154012937700  0.1217859424599442  0.4026692272262934
  0.8843371939577511  0.1089416135195797  0.8216412046778044
  0.7842308571638502  0.2250781425983137  0.5714846019985341
  0.5522320765277638  0.1106589758951608  0.3922902986281291
  0.4462332206156572  0.2132125359324889  0.1423580269675747
  0.2300571940411477  0.1120519423403980  0.8816761381582583
  0.1170585297787398  0.2243483182726636  0.6458002014017094
  0.8728217941537095  0.1044138103485873  0.3276766463455367
  0.7828434194796640  0.2243915217855480  0.0709185871949520
  0.5510605500072506  0.1086042352765973  0.8913147200039946
  0.4455040531380788  0.2161051983460335  0.6405633492477836
  0.2227608249038003  0.4337893470724312  0.4024335815856337
  0.1093736343400396  0.5648371924068265  0.0594086492831555
  0.8850442050315377  0.4413379491413806  0.8200226831473367
  0.7753820381979177  0.5539760805505461  0.5692265713996633
  0.5578469402781291  0.4439516884195973  0.3230398638967606
  0.4424713158393636  0.5539838592446046  0.1377296568780367
  0.2294765462172010  0.4492289719573159  0.8824454927749539
  0.1026306401164000  0.5492211698085357  0.5802850195212066
  0.8856885138851092  0.4412585929462808  0.3191972224153977
  0.7775925656375869  0.5546643041584655  0.0708224436627503
  0.5634260779059657  0.4457603078943430  0.8202267017733101
  0.4446687792950613  0.5568210178668108  0.6401530788554355
  0.1086924774008609  0.8756273121504485  0.0590574817722951
  0.8846695330698737  0.7747415393656903  0.8194563827246594
  0.7764219246561327  0.8874227516197775  0.5707224625013561
  0.5643380253035387  0.7809007973619713  0.3263561488701278
  0.4585268379297864  0.8983753425288472  0.1319605666610913
  0.2146665582437221  0.7740799525614606  0.8160587348990237
  0.1011364882544350  0.8857893570739268  0.5802311255110363
  0.8857961902655443  0.7764467238707624  0.3185812669313245
  0.7771745321990471  0.8874767119905950  0.0701845935288247
  0.5609916412488030  0.7818663330687856  0.8351796144490468
  0.4486985266985122  0.8942887056198801  0.6394491248809168
  0.1236237961284394  0.2251905615129964  0.1281270141515549
  0.2058370491154349  0.7700341946158298  0.3329356695663082
  0.1042110960971305  0.2183943846829603  0.3452051453438384
  0.2399210085368340  0.1018541099601550  0.0652471830044693
  0.7857317460289508  0.2248817525334711  0.8830141447491960
  0.8839017124438645  0.1077397381393814  0.6345636692775124
  0.4357254502423148  0.2117473640874198  0.3316639445027060
  0.5542403462857455  0.1129716118054974  0.0744637910031109
  0.1194650792200031  0.2252453188602344  0.8340779158772992
  0.2260225619293642  0.1175972132772910  0.5889630162822543
  0.7811890667622488  0.2282624561050722  0.3862828163996824
  0.8558398778697272  0.0942761500465265  0.1458792813548430
  0.4465297043650643  0.2162641604312274  0.8254955237476337
  0.5495365016964272  0.1068737575900346  0.5776855956017137
  0.0935278615163650  0.5306275677089374  0.3967245772068533
  0.2361757372438687  0.4654442843071525  0.0649689419904402
  0.7783399655860411  0.5547513437311072  0.8843869301016299
  0.8832750360733930  0.4414746861886819  0.6359813260949445
  0.4349098751056137  0.5523463946584555  0.3320933989230960
  0.5631970809828193  0.4444689114285182  0.1328053073902082
  0.1059923537762416  0.5577172243305168  0.8720195860455849
  0.2259096198279383  0.4407046030097879  0.5889565552800030
  0.7762526372111371  0.5542661692216121  0.3827264061911440
  0.8927743729861279  0.4449758780747508  0.1304641451107146
  0.4452149611758829  0.5555155923580654  0.8298658381357401
  0.5616102130597944  0.4454076047359696  0.6287326166611735
  0.0922993397896174  0.8956272617603169  0.3965581622074432
  0.2274957638890895  0.7795148033879331  0.1160843142708201
  0.7830742313230752  0.8917900696888289  0.8839658348335488
  0.8825135227001416  0.7741756472064482  0.6351968547268808
  0.4721288959242924  0.9096895771112413  0.3164400326083700
  0.5605898100992940  0.7743903028782113  0.1159997724678342
  0.1046463126311995  0.8801747139974915  0.8719327837521100
  0.2139939680609254  0.7737783950024686  0.6265871660088266
  0.7781182659106982  0.8850754797631257  0.3856811255761473
  0.8926575987796970  0.7801955759771790  0.1296448112192754
  0.4459678671608811  0.8940413265765786  0.8292674193204547
  0.5596201618309626  0.7810933483446213  0.6232431858176656
 
             NaN             NaN             NaN
             NaN             NaN             NaN
             NaN             NaN             NaN
             NaN             NaN             NaN
             NaN             NaN             NaN
             NaN             NaN             NaN
             NaN             NaN             NaN
             NaN             NaN             NaN
             NaN             NaN             NaN
             NaN             NaN             NaN
             NaN             NaN             NaN
             NaN             NaN             NaN
             NaN             NaN             NaN
             NaN             NaN             NaN
             NaN             NaN             NaN
             NaN             NaN             NaN
             NaN             NaN             NaN
             NaN             NaN             NaN
             NaN             NaN             NaN
             NaN             NaN             NaN
             NaN             NaN             NaN
             NaN             NaN             NaN
             NaN             NaN             NaN
             NaN             NaN             NaN
             NaN             NaN             NaN
             NaN             NaN             NaN
             NaN             NaN             NaN
             NaN             NaN             NaN
             NaN             NaN             NaN
             NaN             NaN             NaN
             NaN             NaN             NaN
             NaN             NaN             NaN
             NaN             NaN             NaN
             NaN             NaN             NaN
             NaN             NaN             NaN
             NaN             NaN             NaN
             NaN             NaN             NaN
             NaN             NaN             NaN
             NaN             NaN             NaN
             NaN             NaN             NaN
             NaN             NaN             NaN
             NaN             NaN             NaN
             NaN             NaN             NaN
             NaN             NaN             NaN
             NaN             NaN             NaN
             NaN             NaN             NaN
             NaN             NaN             NaN
             NaN             NaN             NaN
             NaN             NaN             NaN
             NaN             NaN             NaN
             NaN             NaN             NaN
             NaN             NaN             NaN
             NaN             NaN             NaN
             NaN             NaN             NaN
             NaN             NaN             NaN
             NaN             NaN             NaN
             NaN             NaN             NaN
             NaN             NaN             NaN
             NaN             NaN             NaN
             NaN             NaN             NaN
             NaN             NaN             NaN
             NaN             NaN             NaN
             NaN             NaN             NaN
             NaN             NaN             NaN
             NaN             NaN             NaN
             NaN             NaN             NaN
             NaN             NaN             NaN
             NaN             NaN             NaN
             NaN             NaN             NaN
             NaN             NaN             NaN
             NaN             NaN             NaN
             NaN             NaN             NaN
