Al   Hf   N                             
   1.00000000000000     
     9.4917886546537904    0.0093645006100127    0.0042600347005094
    -4.7484044782417394    8.2105413703893664    0.0016031925359662
    -0.1090230125778462   -0.0647815418363667   10.4014530780838594
   Al   Hf   N 
    34     2    36
Direct
  0.2211961693014075  0.1210549882724905  0.4001970800768433
  0.8836398598533037  0.1081842867099923  0.8206710351019311
  0.7817554961801250  0.2237873490737954  0.5701477217188824
  0.5509993205971071  0.1088597106200808  0.3892017904606391
  0.4490135339200805  0.2218405640780432  0.1404008451731613
  0.2309824938017186  0.1135949727018186  0.8789707772648612
  0.1169328828978138  0.2248232785215905  0.6440837610560237
  0.8697066766937525  0.1012210314882225  0.3256462750956288
  0.7817416465604765  0.2239207446517000  0.0686479024076618
  0.5512381040637919  0.1087537811044896  0.8878731273878557
  0.4488800847230578  0.2245871094799483  0.6394291554712055
  0.2211967026832511  0.4328752840328676  0.4001924829289365
  0.1125145006753883  0.5664395100778847  0.0573257295785581
  0.8847820167618181  0.4422885611489562  0.8198345919654670
  0.7807032588624949  0.5567091335428884  0.5708393786074808
  0.5487325677735839  0.4407276701411575  0.3867518967885246
  0.4490015148901492  0.5598795892021613  0.1404015110806824
  0.2309785125108377  0.4501160368825552  0.8789726878815856
  0.1029345650718270  0.5491177322237419  0.5788888241193533
  0.8839549800067701  0.4386628312055407  0.3177524777934835
  0.7852263961605743  0.5589735903099182  0.0747715670508953
  0.5533526440818122  0.4430409737540231  0.8913761666593558
  0.4488815485803457  0.5570102804782735  0.6394290730761227
  0.1125137018693323  0.8787857410694571  0.0573205221716862
  0.8847827205164762  0.7752219422053201  0.8198343883875623
  0.7817570354539427  0.8906870039311272  0.5701462487200075
  0.5510040170596326  0.7748599429690444  0.3891971274899504
  0.4632285243742089  0.8979691468450142  0.1322839039483981
  0.2164825264089743  0.7746069221030467  0.8136385854759425
  0.1029299003981592  0.8865288084964504  0.5788903854019267
  0.8839415674652784  0.7780174676425702  0.3177531806131668
  0.7817456404746252  0.8905494181820330  0.0686431913546031
  0.5512395786188975  0.7752124185524778  0.8878714111853512
  0.4496207153422205  0.8911686605980051  0.6371146559920717
  0.1236520528658360  0.2281585855816743  0.1261553071574752
  0.2087694869151591  0.7707754403721978  0.3315653569608585
  0.1029352213822960  0.2178204764020037  0.3428598058855457
  0.2407410320466710  0.1048238789731926  0.0632094285552682
  0.7856160999028177  0.2252050743234264  0.8816794227230460
  0.8826358358917616  0.1076866429620651  0.6341630580233684
  0.4386833673470818  0.2175501428975082  0.3280000033566992
  0.5529181920128110  0.1136652441499777  0.0728304142859812
  0.1198821769378782  0.2262948033599983  0.8316697923041616
  0.2266367076486731  0.1180910451454267  0.5876621551779877
  0.7798710879839774  0.2267875755214774  0.3853593022983759
  0.8541635251995316  0.0934572855874976  0.1448021977933678
  0.4514390313372729  0.2259450166606953  0.8234038364289447
  0.5474145651963411  0.1064822729403829  0.5764725612586119
  0.0925018981279635  0.5302715051708589  0.3947255511920886
  0.2407170859896937  0.4686293636437853  0.0632086691127327
  0.7838315807771181  0.5582678425901122  0.8836426390678653
  0.8826126761459605  0.4406625544403298  0.6354619081038919
  0.4386897424529508  0.5538353854845610  0.3280002984974857
  0.5527887802825262  0.4427657904563631  0.0808680710482719
  0.1075229287210320  0.5581609723746013  0.8700902205431831
  0.2266382609636111  0.4412838811845461  0.5876581159416503
  0.7795855553371851  0.5561433597785879  0.3743350978303823
  0.8952361588769193  0.4447502879004332  0.1301172093991454
  0.4514375825321082  0.5582026339364816  0.8234053242560790
  0.5503433385702436  0.4415416938656946  0.5749778665338283
  0.0924760008294285  0.8949387478820228  0.3947243979389796
  0.2300786607602916  0.7814094606066249  0.1147599313660805
  0.7856157056856290  0.8931149083025929  0.8816769820751205
  0.8826109868855738  0.7746850231848015  0.6354633287240574
  0.4784003605221230  0.9055464670469178  0.3132362469159062
  0.5529153630680597  0.7719879653880639  0.0728272338059028
  0.1075239213450274  0.8820698690597268  0.8700857695743665
  0.2133755884369393  0.7730565034774557  0.6260273558554701
  0.7798687356809424  0.8857909621363760  0.3853564619771817
  0.8952412979292177  0.7832338531535825  0.1301171715552769
  0.4507033211066940  0.8917057365623862  0.8236784237756041
  0.5474140798224383  0.7736729486542160  0.5764702691079719
 
             NaN             NaN             NaN
             NaN             NaN             NaN
             NaN             NaN             NaN
             NaN             NaN             NaN
             NaN             NaN             NaN
             NaN             NaN             NaN
             NaN             NaN             NaN
             NaN             NaN             NaN
             NaN             NaN             NaN
             NaN             NaN             NaN
             NaN             NaN             NaN
             NaN             NaN             NaN
             NaN             NaN             NaN
             NaN             NaN             NaN
             NaN             NaN             NaN
             NaN             NaN             NaN
             NaN             NaN             NaN
             NaN             NaN             NaN
             NaN             NaN             NaN
             NaN             NaN             NaN
             NaN             NaN             NaN
             NaN             NaN             NaN
             NaN             NaN             NaN
             NaN             NaN             NaN
             NaN             NaN             NaN
             NaN             NaN             NaN
             NaN             NaN             NaN
             NaN             NaN             NaN
             NaN             NaN             NaN
             NaN             NaN             NaN
             NaN             NaN             NaN
             NaN             NaN             NaN
             NaN             NaN             NaN
             NaN             NaN             NaN
             NaN             NaN             NaN
             NaN             NaN             NaN
             NaN             NaN             NaN
             NaN             NaN             NaN
             NaN             NaN             NaN
             NaN             NaN             NaN
             NaN             NaN             NaN
             NaN             NaN             NaN
             NaN             NaN             NaN
             NaN             NaN             NaN
             NaN             NaN             NaN
             NaN             NaN             NaN
             NaN             NaN             NaN
             NaN             NaN             NaN
             NaN             NaN             NaN
             NaN             NaN             NaN
             NaN             NaN             NaN
             NaN             NaN             NaN
             NaN             NaN             NaN
             NaN             NaN             NaN
             NaN             NaN             NaN
             NaN             NaN             NaN
             NaN             NaN             NaN
             NaN             NaN             NaN
             NaN             NaN             NaN
             NaN             NaN             NaN
             NaN             NaN             NaN
             NaN             NaN             NaN
             NaN             NaN             NaN
             NaN             NaN             NaN
             NaN             NaN             NaN
             NaN             NaN             NaN
             NaN             NaN             NaN
             NaN             NaN             NaN
             NaN             NaN             NaN
             NaN             NaN             NaN
             NaN             NaN             NaN
             NaN             NaN             NaN
