Al   Hf   N                             
   1.00000000000000     
     9.5290760992840955    0.0103348504943892    0.0106465324512933
    -4.7639851819029335    8.2430006829323546    0.0077332799662006
    -0.1255105892204950   -0.0418696434741102   10.3149794138782216
   Al   Hf   N 
    34     2    36
Direct
  0.2239671296439837  0.1212699289639555  0.3977498917515593
  0.8852065336033009  0.1043503625490451  0.8201514215911555
  0.7705630314736822  0.2211854976284066  0.6381258547790102
  0.5585501693265322  0.1152723631263178  0.3872997372311985
  0.4486823354871298  0.2235962000781778  0.1398191868771135
  0.2314043544839189  0.1110342653294596  0.8787514998057236
  0.1167424229859185  0.2229636351159819  0.6410616484919763
  0.8759681612727027  0.1027590551097360  0.3250189125034793
  0.7715308941581015  0.2270587144509403  0.1406129687371538
  0.5559393531062788  0.1114938959061349  0.8873457850144477
  0.4475329899760190  0.2243487510177128  0.6377234397847378
  0.2206169520592884  0.4354312388450945  0.3973805793585658
  0.1159050718046643  0.5655251412164808  0.0740406170154693
  0.8800616565824557  0.4392063386727152  0.8813995800413155
  0.7701687678341503  0.5493889070586716  0.6392466690948210
  0.5544170740912269  0.4456838468217840  0.3862203657611326
  0.4478900425112958  0.5581461724596027  0.1388288464851603
  0.2300428974459819  0.4498402363851153  0.8725006235647155
  0.1045529933000162  0.5473930121325851  0.6154131963155409
  0.8766382849907907  0.4382802414553741  0.3937689305782875
  0.7783176884700461  0.5520913679087327  0.1375752886962506
  0.5564759072400876  0.4445332093081458  0.8886058479038015
  0.4489507251767605  0.5580184954650927  0.6368326753693787
  0.1111791993884254  0.8765202201583921  0.0602922836789773
  0.8870544337385858  0.7807223410091089  0.8183209996402930
  0.7825909514052846  0.8916733843136451  0.5678557706775327
  0.5488040768784833  0.7756269957748595  0.3887041631400709
  0.4634580126375143  0.8988311923494074  0.1312313703866846
  0.2177721266185504  0.7775943299710323  0.8120376482278372
  0.1008232612802904  0.8866444043736557  0.5758070292266745
  0.8885866627395914  0.7859471268656573  0.3180366452223975
  0.7814993830021225  0.8892611031322507  0.0680471500304660
  0.5493581817073482  0.7738577931230566  0.8868447044141011
  0.4502109156879862  0.8912818878762921  0.6344120645593421
  0.1281417595849788  0.2295356777358477  0.1236774506831592
  0.2174918174783982  0.7679152011488289  0.3399642630790001
  0.1059829532165406  0.2176294269070360  0.3422604567343434
  0.2416678330374832  0.1023371094196832  0.0641076688234755
  0.7723096557087287  0.2212908568367404  0.8267398404182121
  0.8866393214190046  0.1069302339871663  0.6295109891933653
  0.4408297956372805  0.2203829924263316  0.3294125992931198
  0.5590215688273343  0.1176514755975729  0.0723207962551911
  0.1182959737190590  0.2230721644415973  0.8340020633492635
  0.2278404847239630  0.1180038522604784  0.5870362491473511
  0.7707856607759400  0.2290933393016991  0.3294100885900416
  0.8630328267320047  0.0942991262015230  0.1381901788446504
  0.4492651834480983  0.2241240680019070  0.8235128656563244
  0.5527221001458871  0.1096693760925931  0.5747425442840226
  0.0918075229000262  0.5222301251053655  0.3630685063111642
  0.2402401182075054  0.4705384194442547  0.0561877320877390
  0.7713514489689582  0.5492763426894151  0.8272567572073761
  0.8782076886156053  0.4400595518608963  0.5817872096891665
  0.4406041388199977  0.5552330940941718  0.3278745873292289
  0.5584242434422024  0.4462218961354628  0.0765327386282194
  0.1050567328138424  0.5506197856055607  0.8352220878746802
  0.2253417612629830  0.4413039733313186  0.5868298793634947
  0.7730349296948280  0.5518377034707986  0.3266202223606819
  0.8884177425336556  0.4450155819677971  0.0700926927612031
  0.4506726346234185  0.5576735846679375  0.8219831437620935
  0.5543750637090457  0.4445605460355967  0.5740945479466557
  0.0948292818835022  0.8952343429166991  0.3924987901086319
  0.2310558662948379  0.7809404203498117  0.1155164716411404
  0.7832901738048406  0.8910465566698721  0.8807644740210857
  0.8856669838399600  0.7808739699538262  0.6328874549089808
  0.4810926206916222  0.9107970049693024  0.3134399767221146
  0.5528469814027188  0.7723690457347697  0.0734896566619949
  0.1058440137924676  0.8787523792036088  0.8716947621456251
  0.2161095208062745  0.7781623528156939  0.6198742261875140
  0.7786362501005472  0.8869153220321212  0.3828921625560219
  0.8972533070293994  0.7858133535384099  0.1284511881389243
  0.4492423937697076  0.8917147318503439  0.8240142818018910
  0.5499610434269204  0.7753870033961585  0.5776048518076402
 
             NaN             NaN             NaN
             NaN             NaN             NaN
             NaN             NaN             NaN
             NaN             NaN             NaN
             NaN             NaN             NaN
             NaN             NaN             NaN
             NaN             NaN             NaN
             NaN             NaN             NaN
             NaN             NaN             NaN
             NaN             NaN             NaN
             NaN             NaN             NaN
             NaN             NaN             NaN
             NaN             NaN             NaN
             NaN             NaN             NaN
             NaN             NaN             NaN
             NaN             NaN             NaN
             NaN             NaN             NaN
             NaN             NaN             NaN
             NaN             NaN             NaN
             NaN             NaN             NaN
             NaN             NaN             NaN
             NaN             NaN             NaN
             NaN             NaN             NaN
             NaN             NaN             NaN
             NaN             NaN             NaN
             NaN             NaN             NaN
             NaN             NaN             NaN
             NaN             NaN             NaN
             NaN             NaN             NaN
             NaN             NaN             NaN
             NaN             NaN             NaN
             NaN             NaN             NaN
             NaN             NaN             NaN
             NaN             NaN             NaN
             NaN             NaN             NaN
             NaN             NaN             NaN
             NaN             NaN             NaN
             NaN             NaN             NaN
             NaN             NaN             NaN
             NaN             NaN             NaN
             NaN             NaN             NaN
             NaN             NaN             NaN
             NaN             NaN             NaN
             NaN             NaN             NaN
             NaN             NaN             NaN
             NaN             NaN             NaN
             NaN             NaN             NaN
             NaN             NaN             NaN
             NaN             NaN             NaN
             NaN             NaN             NaN
             NaN             NaN             NaN
             NaN             NaN             NaN
             NaN             NaN             NaN
             NaN             NaN             NaN
             NaN             NaN             NaN
             NaN             NaN             NaN
             NaN             NaN             NaN
             NaN             NaN             NaN
             NaN             NaN             NaN
             NaN             NaN             NaN
             NaN             NaN             NaN
             NaN             NaN             NaN
             NaN             NaN             NaN
             NaN             NaN             NaN
             NaN             NaN             NaN
             NaN             NaN             NaN
             NaN             NaN             NaN
             NaN             NaN             NaN
             NaN             NaN             NaN
             NaN             NaN             NaN
             NaN             NaN             NaN
             NaN             NaN             NaN
