Al   Hf   N                             
   1.00000000000000     
     9.4951703921223842    0.0086115945569432    0.0039962900874913
    -4.7526536682924503    8.2167806740550713    0.0013621541894046
    -0.1120971884865614   -0.0664287269220969   10.4045634992658425
   Al   Hf   N 
    34     2    36
Direct
  0.2213656076692061  0.1212488600834831  0.3998365575089338
  0.8835872343891253  0.1081561997024920  0.8204449968013563
  0.7816175642265080  0.2230627045559501  0.5696519714297636
  0.5506792286959481  0.1087705598051159  0.3889936095573034
  0.4485039184977495  0.2213895508139956  0.1405217898513058
  0.2313275581070613  0.1140140710450055  0.8790097710312850
  0.1169352048530357  0.2248274524242007  0.6440029274437293
  0.8695473407108310  0.1011375422232064  0.3253594815182055
  0.7817310431902840  0.2234520121618928  0.0680782312222306
  0.5509984334227269  0.1087810492946275  0.8877547893482145
  0.4482717063748680  0.2236400469463291  0.6395612138774354
  0.2213660838593086  0.4328431376017718  0.3998345656922098
  0.1127666270760699  0.5665619890737261  0.0567358755329295
  0.8856190901912839  0.4413736204262335  0.8210805511417618
  0.7770960155716722  0.5549078247216528  0.5950827446758140
  0.5520380748990448  0.4423797370814526  0.3858212051093588
  0.4485000928987048  0.5598304339707383  0.1405219733155789
  0.2313260096007070  0.4500373074952151  0.8790109307969516
  0.1034743081060014  0.5494331421834460  0.5782379224483520
  0.8843141614729291  0.4371398133285851  0.3173101555907749
  0.7819886116663426  0.5573554783802805  0.0960058498962866
  0.5559138459103607  0.4443188317812954  0.8914725956156673
  0.4482721866850170  0.5573513594410429  0.6395611279063260
  0.1127656146054719  0.8789229284083717  0.0567334457520445
  0.8856187944885647  0.7769704864653448  0.8210804522266741
  0.7816175097896547  0.8912764668984821  0.5696514278340032
  0.5506806081790856  0.7746295539350072  0.3889917906548774
  0.4632743248853046  0.8979959210858866  0.1321671382064551
  0.2164454918915553  0.7745854143781088  0.8136359097167158
  0.1034718945503457  0.8867600482136098  0.5782387790616710
  0.8843088779547941  0.7798987578499705  0.3173105171191111
  0.7817315826747588  0.8910035936630223  0.0680765219753141
  0.5509983632794189  0.7749410127879841  0.8877539868691784
  0.4495468856657467  0.8911335281773134  0.6371315942698743
  0.1235506082942592  0.2281267295684302  0.1261119987483781
  0.2088369286768668  0.7707907290591010  0.3313067683599371
  0.1027101776156840  0.2177137347512641  0.3427735581117943
  0.2407392555307695  0.1050242725576496  0.0631223406423942
  0.7853647426992083  0.2244563221634195  0.8816113165574748
  0.8826922085200835  0.1077098857681591  0.6340134239718509
  0.4384914347816817  0.2175502393835202  0.3282628413038680
  0.5529024224516519  0.1137739360509897  0.0727979204277602
  0.1198106769690170  0.2262640561816553  0.8314699033547441
  0.2267632616357815  0.1183542547537755  0.5872830155943234
  0.7796335197305169  0.2262440893132762  0.3854371628098647
  0.8540735825026644  0.0934026108148203  0.1446609977850670
  0.4512537469189439  0.2259199438561623  0.8232933470906687
  0.5474050947102498  0.1064462902944641  0.5764218783763155
  0.0924352122852738  0.5302768281071906  0.3945581454548162
  0.2407312632188194  0.4684334801171204  0.0631226931305093
  0.7813751024191120  0.5570457774097051  0.8712386293955845
  0.8840951910132873  0.4390737025446683  0.6356223038555697
  0.4384941340656994  0.5536562944478831  0.3282627649060643
  0.5524227836456319  0.4425753113671078  0.0800993416161688
  0.1081638211483380  0.5582903219537414  0.8699971396756894
  0.2267637743472690  0.4411363769481085  0.5872811376139708
  0.7753029106023277  0.5540094439433574  0.3519587495848313
  0.8970995714920136  0.4433001572239448  0.1291795608917639
  0.4512531618155435  0.5580510569556552  0.8232938258475784
  0.5515594924456053  0.4421431178221624  0.5746480865880201
  0.0924247979363457  0.8948763008881286  0.3945581558277809
  0.2300976008049176  0.7814131989162547  0.1144281805191198
  0.7853640343010611  0.8936251613903963  0.8816104069901343
  0.8840941362526209  0.7777485897402769  0.6356228335251330
  0.4784867809644311  0.9055993223942451  0.3130359291518801
  0.5529008256045458  0.7718538201896692  0.0727966437466208
  0.1081635796798253  0.8825909585067180  0.8699950646427297
  0.2131109120608130  0.7729191388619014  0.6260782794172286
  0.7796322619986995  0.8861079074332139  0.3854363027672676
  0.8971010684577436  0.7865312305665597  0.1291792793056601
  0.4506752861486731  0.8916965537691794  0.8235933891160556
  0.5474041383680088  0.7736861010411147  0.5764209281914390
 
             NaN             NaN             NaN
             NaN             NaN             NaN
             NaN             NaN             NaN
             NaN             NaN             NaN
             NaN             NaN             NaN
             NaN             NaN             NaN
             NaN             NaN             NaN
             NaN             NaN             NaN
             NaN             NaN             NaN
             NaN             NaN             NaN
             NaN             NaN             NaN
             NaN             NaN             NaN
             NaN             NaN             NaN
             NaN             NaN             NaN
             NaN             NaN             NaN
             NaN             NaN             NaN
             NaN             NaN             NaN
             NaN             NaN             NaN
             NaN             NaN             NaN
             NaN             NaN             NaN
             NaN             NaN             NaN
             NaN             NaN             NaN
             NaN             NaN             NaN
             NaN             NaN             NaN
             NaN             NaN             NaN
             NaN             NaN             NaN
             NaN             NaN             NaN
             NaN             NaN             NaN
             NaN             NaN             NaN
             NaN             NaN             NaN
             NaN             NaN             NaN
             NaN             NaN             NaN
             NaN             NaN             NaN
             NaN             NaN             NaN
             NaN             NaN             NaN
             NaN             NaN             NaN
             NaN             NaN             NaN
             NaN             NaN             NaN
             NaN             NaN             NaN
             NaN             NaN             NaN
             NaN             NaN             NaN
             NaN             NaN             NaN
             NaN             NaN             NaN
             NaN             NaN             NaN
             NaN             NaN             NaN
             NaN             NaN             NaN
             NaN             NaN             NaN
             NaN             NaN             NaN
             NaN             NaN             NaN
             NaN             NaN             NaN
             NaN             NaN             NaN
             NaN             NaN             NaN
             NaN             NaN             NaN
             NaN             NaN             NaN
             NaN             NaN             NaN
             NaN             NaN             NaN
             NaN             NaN             NaN
             NaN             NaN             NaN
             NaN             NaN             NaN
             NaN             NaN             NaN
             NaN             NaN             NaN
             NaN             NaN             NaN
             NaN             NaN             NaN
             NaN             NaN             NaN
             NaN             NaN             NaN
             NaN             NaN             NaN
             NaN             NaN             NaN
             NaN             NaN             NaN
             NaN             NaN             NaN
             NaN             NaN             NaN
             NaN             NaN             NaN
             NaN             NaN             NaN
