Al   Hf   N                             
   1.00000000000000     
     9.4946775373008592    0.0116232187692212    0.0050512685395635
    -4.7575495505986458    8.2185730073237000    0.0023263075756509
    -0.1124364342933883   -0.0678009538739777   10.4152037520767013
   Al   Hf   N 
    34     2    36
Direct
  0.2207604249668478  0.1205903735473157  0.4016026040535081
  0.8837148157065542  0.1081422272903865  0.8210411673567251
  0.7825451031488342  0.2245605424661576  0.5704611418794983
  0.5515698237136633  0.1083398581628572  0.3903505097486288
  0.4477577738828487  0.2167607628619663  0.1410083686098318
  0.2299499304726780  0.1126478691774366  0.8802863755140393
  0.1168696557612847  0.2247258433299990  0.6447300561673259
  0.8699844627364612  0.1012753531146373  0.3260831169218363
  0.7828498061739424  0.2248121402727250  0.0692233383437753
  0.5515303355589722  0.1078965381794319  0.8888105740246104
  0.4463367515263386  0.2193094358424332  0.6375679433599046
  0.2207617388040077  0.4327368559004086  0.4016040755523420
  0.1116722158600538  0.5664775662952479  0.0584128457168518
  0.8851459423066501  0.4418447598386024  0.8188745212929334
  0.7755371536002968  0.5540601195652286  0.5669908687616783
  0.5555532635558862  0.4440605169526606  0.3333419609124419
  0.4477635203460792  0.5635840085139208  0.1410065424623852
  0.2299519610797134  0.4498687565063904  0.8802868948808893
  0.1018149307518783  0.5492856789719269  0.5791427698480831
  0.8849484911382248  0.4396391788852299  0.3180087547171908
  0.7790950275763322  0.5558376670059531  0.0720791697984495
  0.5606030339001720  0.4465834082399098  0.8328638572348197
  0.4463335726590287  0.5596082955422048  0.6375674186245561
  0.1116715523262570  0.8777761327223317  0.0584138097481883
  0.8851424980690581  0.7758689354188348  0.8188745634587207
  0.7825425404432025  0.8905660599191734  0.5704623840235996
  0.5515658322680892  0.7758008106788452  0.3903533015616532
  0.4638955843319579  0.8982401941617368  0.1331245290991347
  0.2164527778274561  0.7745099944380769  0.8142858473883479
  0.1018158082332192  0.8851123396718066  0.5791428492535928
  0.8849543756151874  0.7778807085118231  0.3180080117042507
  0.7828442568136964  0.8906116110346360  0.0692267948606968
  0.5515272376269138  0.7761999889889069  0.8888116206918610
  0.4498882727017630  0.8912349081703397  0.6380632764607199
  0.1243776597254538  0.2284939705366398  0.1272180572723443
  0.2096300084805591  0.7710851521716080  0.3319859503447589
  0.1031274693277098  0.2178615422025914  0.3438513044431346
  0.2406915434623187  0.1044664644227709  0.0637239390562243
  0.7859229251611595  0.2255714440002734  0.8819440856242835
  0.8826214330534938  0.1075913273035525  0.6346684246931034
  0.4352735791528843  0.2111646860802097  0.3300249470499708
  0.5538685634361826  0.1131411658071571  0.0728360576735199
  0.1202098340528579  0.2263993747356139  0.8321446697921218
  0.2249962010946689  0.1167497886729905  0.5879650115154291
  0.7804757420533193  0.2274972468014482  0.3854565927746307
  0.8547774724106958  0.0936629794154413  0.1452501378849718
  0.4477078452559056  0.2186868414557637  0.8234684523284486
  0.5481184723270260  0.1054149204527093  0.5764415556193399
  0.0925917115303321  0.5310228328260322  0.3952550223039992
  0.2407087584253134  0.4687978726926545  0.0637268935439863
  0.7793295497332835  0.5559576680146776  0.8845511235440711
  0.8822894222299311  0.4413114513152721  0.6350779768025205
  0.4352695673692466  0.5567013650943764  0.3300249647711269
  0.5619122955443743  0.4472354743640139  0.1276436486832466
  0.1063552864757256  0.5582244208899354  0.8712483757921348
  0.2249973142651669  0.4408077663173842  0.5879664409958281
  0.7789334872899971  0.5557616269455039  0.3799531652206412
  0.8945821316694165  0.4457069848279858  0.1299633549964128
  0.4477066552730662  0.5616093851953892  0.8234687661634723
  0.5566889799574071  0.4446247853741596  0.6111972222007296
  0.0926065169021513  0.8941605679462299  0.3952576947938695
  0.2306999202688687  0.7816268839722724  0.1155230182930680
  0.7859217248082970  0.8929392334937845  0.8819456777588002
  0.8822873686850983  0.7735391071632591  0.6350778302396662
  0.4792172443903269  0.9059084273370672  0.3136770475166131
  0.5538683606629320  0.7732919444481894  0.0728384056103621
  0.1063553686993757  0.8807190912881921  0.8712499229346520
  0.2136502326087282  0.7731048757572410  0.6268444719529498
  0.7804766546297657  0.8855653446315159  0.3854596051757113
  0.8945764151621916  0.7814290442692382  0.1299625304855496
  0.4507299627251484  0.8916598368831359  0.8242889815990750
  0.5481168260072025  0.7752649223828101  0.5764426743501190
 
             NaN             NaN             NaN
             NaN             NaN             NaN
             NaN             NaN             NaN
             NaN             NaN             NaN
             NaN             NaN             NaN
             NaN             NaN             NaN
             NaN             NaN             NaN
             NaN             NaN             NaN
             NaN             NaN             NaN
             NaN             NaN             NaN
             NaN             NaN             NaN
             NaN             NaN             NaN
             NaN             NaN             NaN
             NaN             NaN             NaN
             NaN             NaN             NaN
             NaN             NaN             NaN
             NaN             NaN             NaN
             NaN             NaN             NaN
             NaN             NaN             NaN
             NaN             NaN             NaN
             NaN             NaN             NaN
             NaN             NaN             NaN
             NaN             NaN             NaN
             NaN             NaN             NaN
             NaN             NaN             NaN
             NaN             NaN             NaN
             NaN             NaN             NaN
             NaN             NaN             NaN
             NaN             NaN             NaN
             NaN             NaN             NaN
             NaN             NaN             NaN
             NaN             NaN             NaN
             NaN             NaN             NaN
             NaN             NaN             NaN
             NaN             NaN             NaN
             NaN             NaN             NaN
             NaN             NaN             NaN
             NaN             NaN             NaN
             NaN             NaN             NaN
             NaN             NaN             NaN
             NaN             NaN             NaN
             NaN             NaN             NaN
             NaN             NaN             NaN
             NaN             NaN             NaN
             NaN             NaN             NaN
             NaN             NaN             NaN
             NaN             NaN             NaN
             NaN             NaN             NaN
             NaN             NaN             NaN
             NaN             NaN             NaN
             NaN             NaN             NaN
             NaN             NaN             NaN
             NaN             NaN             NaN
             NaN             NaN             NaN
             NaN             NaN             NaN
             NaN             NaN             NaN
             NaN             NaN             NaN
             NaN             NaN             NaN
             NaN             NaN             NaN
             NaN             NaN             NaN
             NaN             NaN             NaN
             NaN             NaN             NaN
             NaN             NaN             NaN
             NaN             NaN             NaN
             NaN             NaN             NaN
             NaN             NaN             NaN
             NaN             NaN             NaN
             NaN             NaN             NaN
             NaN             NaN             NaN
             NaN             NaN             NaN
             NaN             NaN             NaN
             NaN             NaN             NaN
