Al   Hf   N                             
   1.00000000000000     
     9.5241039167213053    0.0095939464748515    0.0093515051877448
    -4.7400212087332800    8.2499979767921321   -0.0007644366075787
    -0.0417288344789563    0.0380174291752165   10.1581911381142138
   Al   Hf   N 
    34     2    36
Direct
  0.2220198707734165  0.1242782309674165  0.3988749865363069
  0.8777594265832871  0.1044870404236192  0.8258897579593332
  0.7805369081295940  0.2233151895528279  0.5722812910061482
  0.5617740367729984  0.1142471838074568  0.3262695706317507
  0.4504959129782130  0.2223119504068121  0.0998145705503997
  0.2302466562645396  0.1082819477847222  0.8802129628905968
  0.1134486214780899  0.2208606948830082  0.6475743643768019
  0.8799001762135386  0.1040962208540727  0.3275222301263869
  0.7757303588670218  0.2214956730896182  0.0715851510235645
  0.5585933976497482  0.1089950207821465  0.8204446569085511
  0.4505241153370887  0.2257688592493572  0.6069996843693730
  0.2284498982898723  0.4472570112314261  0.3305312419899697
  0.1076879475071684  0.5521622729747411  0.0664592431220101
  0.8860099491584248  0.4422295974112912  0.8248887264944590
  0.7779771397128128  0.5551754487967734  0.5737639539108844
  0.5557784433219590  0.4439909947639415  0.3286376478649815
  0.4517454038883505  0.5641231258727927  0.0764737069098756
  0.2271386531448200  0.4525173807193105  0.8294526072597469
  0.1082965312013935  0.5473869850157151  0.5830948990480194
  0.8898439947288724  0.4464949663707754  0.3235842532817294
  0.7775444813886716  0.5541420266635014  0.0747393682612946
  0.5585485036796054  0.4481361558987738  0.8244751734754333
  0.4469681447643687  0.5571071081248725  0.5758750288299566
  0.1039493981823728  0.8754435181840852  0.0615173080461681
  0.8841724290974724  0.7734273474816707  0.8225667436308391
  0.7775404081495163  0.8866735590353663  0.5734588574770819
  0.5608159464046553  0.7777328932434849  0.3241226131333428
  0.4479227728713243  0.8903794891210802  0.0684199394974743
  0.2237414403137916  0.7772626007688763  0.8191714739460932
  0.1045647173828477  0.8860919641653553  0.5838252358631540
  0.8881032254718693  0.7742067217020762  0.3217563711480632
  0.7700589655321337  0.8814517845078451  0.0731970676735298
  0.5555997706530335  0.7764327849285408  0.8230382131949538
  0.4510010636961021  0.8903442791811321  0.5748305559504675
  0.1045394359932663  0.2295974750746564  0.1000495181320919
  0.2098227736549802  0.7722417481080204  0.3260657429027335
  0.1098544510804819  0.2209943517027583  0.3322506288758709
  0.2332165489346894  0.1001551846016137  0.0710367695477122
  0.7754183011209956  0.2203283504533037  0.8825340452001359
  0.8851722585846283  0.1074555074046073  0.6349237765081854
  0.4460455949794701  0.2214838402143783  0.3717176755331388
  0.5570584351208590  0.1084789599861467  0.1340063400561949
  0.1109490151606461  0.2183670034482275  0.8510692452457902
  0.2236763918760262  0.1169288746864425  0.5950129968969925
  0.7797482674364249  0.2243526004231219  0.3845576557999782
  0.8541423821387955  0.0894932912427132  0.1394139421725882
  0.4510975160754723  0.2243711079237391  0.8521292133484812
  0.5608093228722258  0.1088460886006112  0.6315642637803204
  0.1021723368955479  0.5304513665505902  0.3986856534351157
  0.2437104771227348  0.4826032325260333  0.1438877917591903
  0.7771524862132794  0.5542649403649966  0.8853843142066646
  0.8866169992372412  0.4424333730064277  0.6365039816185526
  0.4473954571792179  0.5567688070732526  0.3879268920827289
  0.5565322765140576  0.4469342492254523  0.1354359004490382
  0.1099630253326540  0.5567720756941523  0.8773308756956070
  0.2290181706550238  0.4490143875691945  0.6405248189302682
  0.7753216634326949  0.5532922021903479  0.3856558547705229
  0.8868350157158659  0.4420490958218220  0.1323507334727101
  0.4462605209310052  0.5563366482388374  0.8872529446637683
  0.5604857805328758  0.4518123373191564  0.6348915571696914
  0.0973111369434616  0.8978483469021400  0.3950454894847586
  0.2242179374961963  0.7785202832845649  0.1140861716164099
  0.7752823532714780  0.8854823059804391  0.8838096340852356
  0.8848194246116622  0.7746017637975893  0.6355637665352462
  0.4620548058339386  0.8955466483959964  0.3865120822016066
  0.5558802645656569  0.7788372851243118  0.1342714782116105
  0.1050225728284394  0.8789222434922916  0.8701445855781816
  0.2241942770369348  0.7775144384165941  0.6263814064086053
  0.7775918712261265  0.8842941562603988  0.3853781931408464
  0.8877248359543486  0.7773042321052890  0.1295799905388657
  0.4457305463858112  0.8882954642344142  0.8786690582067687
  0.5570908434390167  0.7769340154269146  0.6349450229399981
 
             NaN             NaN             NaN
             NaN             NaN             NaN
             NaN             NaN             NaN
             NaN             NaN             NaN
             NaN             NaN             NaN
             NaN             NaN             NaN
             NaN             NaN             NaN
             NaN             NaN             NaN
             NaN             NaN             NaN
             NaN             NaN             NaN
             NaN             NaN             NaN
             NaN             NaN             NaN
             NaN             NaN             NaN
             NaN             NaN             NaN
             NaN             NaN             NaN
             NaN             NaN             NaN
             NaN             NaN             NaN
             NaN             NaN             NaN
             NaN             NaN             NaN
             NaN             NaN             NaN
             NaN             NaN             NaN
             NaN             NaN             NaN
             NaN             NaN             NaN
             NaN             NaN             NaN
             NaN             NaN             NaN
             NaN             NaN             NaN
             NaN             NaN             NaN
             NaN             NaN             NaN
             NaN             NaN             NaN
             NaN             NaN             NaN
             NaN             NaN             NaN
             NaN             NaN             NaN
             NaN             NaN             NaN
             NaN             NaN             NaN
             NaN             NaN             NaN
             NaN             NaN             NaN
             NaN             NaN             NaN
             NaN             NaN             NaN
             NaN             NaN             NaN
             NaN             NaN             NaN
             NaN             NaN             NaN
             NaN             NaN             NaN
             NaN             NaN             NaN
             NaN             NaN             NaN
             NaN             NaN             NaN
             NaN             NaN             NaN
             NaN             NaN             NaN
             NaN             NaN             NaN
             NaN             NaN             NaN
             NaN             NaN             NaN
             NaN             NaN             NaN
             NaN             NaN             NaN
             NaN             NaN             NaN
             NaN             NaN             NaN
             NaN             NaN             NaN
             NaN             NaN             NaN
             NaN             NaN             NaN
             NaN             NaN             NaN
             NaN             NaN             NaN
             NaN             NaN             NaN
             NaN             NaN             NaN
             NaN             NaN             NaN
             NaN             NaN             NaN
             NaN             NaN             NaN
             NaN             NaN             NaN
             NaN             NaN             NaN
             NaN             NaN             NaN
             NaN             NaN             NaN
             NaN             NaN             NaN
             NaN             NaN             NaN
             NaN             NaN             NaN
             NaN             NaN             NaN
