Al   Hf   N                             
   1.00000000000000     
     9.4844228555716867    0.0076500728993839    0.0037669448456920
    -4.7381998656358180    8.2037588802965438    0.0013136746760362
     0.0049791664976354    0.0013147711057334   10.1366960615324704
   Al   Hf   N 
    34     2    36
Direct
  0.2256032399377426  0.1113125251023989  0.3231544672137132
  0.8842912409245873  0.1083840852805255  0.8059279380488908
  0.7776239778501268  0.2239239247929041  0.5597514008711086
  0.5606609209797137  0.1155984295088129  0.3103352254583299
  0.4432269314466695  0.2251269232159324  0.0616114581286084
  0.2258781282411997  0.1136170006163744  0.8088572006677884
  0.1110616159116557  0.2217697096816073  0.5616132168309678
  0.8816663362957569  0.1070725160501331  0.3158519528197820
  0.7716897962056278  0.2194255778860915  0.0609572940567880
  0.5570882772537167  0.1116804153760809  0.8104953445984682
  0.4474333641418484  0.2235846572721088  0.5642858678280307
  0.2256035253698532  0.4467695513280475  0.3231530098835916
  0.1080624671495135  0.5584789649151453  0.0566317459867609
  0.8860005103282781  0.4419513899971974  0.8142279339924644
  0.7770744900196991  0.5547761914438109  0.5654137479020135
  0.5569678239182064  0.4447230915126900  0.3156903911131506
  0.4432273316537887  0.5505766635090806  0.0616111703871368
  0.2258781740868660  0.4447372915654894  0.8088570027099049
  0.1074898091164917  0.5493061739984630  0.5734031108118920
  0.8898283683511716  0.4493625276211830  0.3102151267267250
  0.7778437831392809  0.5551604240234187  0.0634259899447447
  0.5554268602313993  0.4439516441484035  0.8137062807481356
  0.4474332096335105  0.5563262505763854  0.5642855374692402
  0.1080617217739170  0.8820588451809132  0.0566318784328594
  0.8859999129181561  0.7765257782404553  0.8142283063748658
  0.7776235468376202  0.8861775919694054  0.5597515018403744
  0.5606604579707736  0.7775409101047511  0.3103351871436472
  0.4499680071060260  0.8912223561772766  0.0559571534591716
  0.2245015787797621  0.7784888740039748  0.8126336954722689
  0.1074891254211112  0.8906612773065018  0.5734042017658424
  0.8898278872705949  0.7729446638037855  0.3102152488018922
  0.7716892781274340  0.8847413849596970  0.0609571817997277
  0.5570880141182296  0.7778843885003559  0.8104952297691083
  0.4505141016338268  0.8914959647453790  0.5641721483700896
  0.1244984790419756  0.2284866618131998  0.0710493359851314
  0.2082471144237844  0.7703644858820514  0.3140628641191917
  0.1110369470765221  0.2217576410979206  0.3655788601293399
  0.2295482933530490  0.0889096943902079  0.1365336285392906
  0.7772452939901583  0.2199643202096634  0.8708505524598052
  0.8876892236230172  0.1100834062750570  0.6157725321083110
  0.4469353134718693  0.2226810805438738  0.3751367489520698
  0.5535686989985489  0.1113129373000424  0.1200255493482298
  0.1064823389435188  0.2194787767866345  0.8584061012260507
  0.2249953471550287  0.1144109969414539  0.6214861494284704
  0.7787039217448755  0.2261036837115905  0.3707502694296381
  0.8698999044184559  0.1011886337779047  0.1262382559262799
  0.4458155234009205  0.2210150117056686  0.8701273210490786
  0.5573824832394656  0.1121756692780213  0.6216562576431357
  0.1001480808180530  0.5314530809546050  0.3891288062447196
  0.2295484740722440  0.4731133985273501  0.1365319341627366
  0.7770665934653944  0.5547711556526436  0.8736331537444869
  0.8858385409388126  0.4424557313522957  0.6263101154915003
  0.4469352765873462  0.5567317887673762  0.3751363935470173
  0.5602710770547772  0.4463738742633017  0.1268868889875726
  0.1110535690668955  0.5529619010764057  0.8670284754829199
  0.2249952054914242  0.4430620516438771  0.6214858601446351
  0.7743263654826129  0.5534021536752798  0.3770908567704629
  0.8878065722507900  0.4413842423802865  0.1174978092732056
  0.4458156511627304  0.5572761917539528  0.8701271289953434
  0.5558654520144130  0.4441714890545901  0.6244405185845693
  0.1001462305593562  0.9011732136165120  0.3891305465294621
  0.2268171806225301  0.7796465204570727  0.1004282968630999
  0.7772449035116925  0.8897570814523775  0.8708505406269454
  0.8858377641544888  0.7758601774439645  0.6263107516983425
  0.4625355836316686  0.8975067764703756  0.3744289052959541
  0.5535684211817999  0.7747325550409079  0.1200255244218234
  0.1110532162053594  0.8905668596475618  0.8670284890232792
  0.2234718750389471  0.7779748592361176  0.6189652790570337
  0.7787033040620055  0.8850781319207014  0.3707503856360002
  0.8878057889251318  0.7788996022781735  0.1174975453791979
  0.4474253699241292  0.8899506282101187  0.8665073788321034
  0.5573820455453605  0.7776841548414800  0.6216561941482184
 
             NaN             NaN             NaN
             NaN             NaN             NaN
             NaN             NaN             NaN
             NaN             NaN             NaN
             NaN             NaN             NaN
             NaN             NaN             NaN
             NaN             NaN             NaN
             NaN             NaN             NaN
             NaN             NaN             NaN
             NaN             NaN             NaN
             NaN             NaN             NaN
             NaN             NaN             NaN
             NaN             NaN             NaN
             NaN             NaN             NaN
             NaN             NaN             NaN
             NaN             NaN             NaN
             NaN             NaN             NaN
             NaN             NaN             NaN
             NaN             NaN             NaN
             NaN             NaN             NaN
             NaN             NaN             NaN
             NaN             NaN             NaN
             NaN             NaN             NaN
             NaN             NaN             NaN
             NaN             NaN             NaN
             NaN             NaN             NaN
             NaN             NaN             NaN
             NaN             NaN             NaN
             NaN             NaN             NaN
             NaN             NaN             NaN
             NaN             NaN             NaN
             NaN             NaN             NaN
             NaN             NaN             NaN
             NaN             NaN             NaN
             NaN             NaN             NaN
             NaN             NaN             NaN
             NaN             NaN             NaN
             NaN             NaN             NaN
             NaN             NaN             NaN
             NaN             NaN             NaN
             NaN             NaN             NaN
             NaN             NaN             NaN
             NaN             NaN             NaN
             NaN             NaN             NaN
             NaN             NaN             NaN
             NaN             NaN             NaN
             NaN             NaN             NaN
             NaN             NaN             NaN
             NaN             NaN             NaN
             NaN             NaN             NaN
             NaN             NaN             NaN
             NaN             NaN             NaN
             NaN             NaN             NaN
             NaN             NaN             NaN
             NaN             NaN             NaN
             NaN             NaN             NaN
             NaN             NaN             NaN
             NaN             NaN             NaN
             NaN             NaN             NaN
             NaN             NaN             NaN
             NaN             NaN             NaN
             NaN             NaN             NaN
             NaN             NaN             NaN
             NaN             NaN             NaN
             NaN             NaN             NaN
             NaN             NaN             NaN
             NaN             NaN             NaN
             NaN             NaN             NaN
             NaN             NaN             NaN
             NaN             NaN             NaN
             NaN             NaN             NaN
             NaN             NaN             NaN
