Al   Hf   N                             
   1.00000000000000     
     9.5319342786285350    0.0079229089492576    0.0226172577584438
    -4.7667957756268571    8.2329271541395386   -0.0091144720963974
    -0.0848544944834980   -0.0217937261796065   10.3102374342976653
   Al   Hf   N 
    34     2    36
Direct
  0.2222268356660612  0.1222891583499846  0.4030758871050133
  0.8858937044603820  0.1078775869951240  0.8241975199714022
  0.7839563930489456  0.2247050419243594  0.5747015364336922
  0.5573361124670319  0.1140600961983898  0.3721779139191567
  0.4436854619132820  0.2122587656173707  0.1422851312181598
  0.2316115118650506  0.1130974539231503  0.8834237539296186
  0.1189138975598431  0.2256488843877553  0.6476337192514177
  0.8722548847938797  0.1013101280864395  0.3290160007563370
  0.7750473007173406  0.2184654401419027  0.0731374887998237
  0.5592157901406125  0.1099278331587270  0.8535667456939341
  0.4460363102126842  0.2194941311923295  0.6421757563167743
  0.2156531831216048  0.4306914252861592  0.4052566641376570
  0.1019064215350540  0.5603389310623785  0.0574385363165561
  0.8851496423413995  0.4429507905449520  0.8202432960387238
  0.7762083341691147  0.5538899012299302  0.5701172255037262
  0.5528533742924386  0.4482999648055818  0.3224201094288808
  0.4582180644149918  0.5641583252582949  0.0674527297692289
  0.2271236960448342  0.4496126017220445  0.8785607503129580
  0.1045490712623289  0.5524037569152180  0.5842242211702655
  0.8865443368058634  0.4462086069243136  0.3197744765332541
  0.7758621932811536  0.5527862941739000  0.0719083528013094
  0.5631216743772920  0.4519451159933726  0.8206513068824025
  0.4556262190626132  0.5604559269765514  0.5764968399577651
  0.1028011986299674  0.8757989775458458  0.0577551874537501
  0.8856019266459849  0.7753579899704377  0.8208649212934386
  0.7796534520200032  0.8888341094827825  0.5716332975250699
  0.5572767553459177  0.7746078189149934  0.3215426275684683
  0.4462005803003576  0.8860038748561160  0.0648567470959873
  0.2230303553955254  0.7782872925005180  0.8153479404295162
  0.1046331406715981  0.8865577594316186  0.5818063598693509
  0.8862659546705111  0.7729872271345704  0.3197070271251224
  0.7730885781443868  0.8873672138868703  0.0733885896719493
  0.5605735421151873  0.7793267971902198  0.8189856103817978
  0.4483839931409672  0.8861085332858606  0.5764992802921300
  0.1249061887839115  0.2310271973937212  0.1297534355849796
  0.2073220489948399  0.7711876693471618  0.3210483774920380
  0.1017676971807595  0.2174617809034263  0.3490812660005809
  0.2369074522636730  0.1008142371878991  0.0678543020552999
  0.7849370956448816  0.2241193309296581  0.8828476815927806
  0.8869484842344658  0.1083252355437899  0.6351813132967257
  0.4352404771478936  0.2138152307955362  0.3345159615169244
  0.5542586499999738  0.1073637079670511  0.1013104402181564
  0.1200276306115507  0.2250122065469560  0.8368968944695511
  0.2279980966875422  0.1186083273027150  0.5901086952038974
  0.7809467353570407  0.2277210719494351  0.3870198372574487
  0.8582389342642468  0.0942768070326206  0.1457630119433440
  0.4470120994391023  0.2209364454398396  0.8294467896035902
  0.5588726761076095  0.1103989135846957  0.6085179663466803
  0.0953000195877440  0.5347609091521863  0.3970238674648930
  0.2337424950279046  0.4704421169888405  0.0690149853413239
  0.7789312062689624  0.5549067690427871  0.8844075958616604
  0.8846341008075035  0.4433291874980246  0.6354842953502121
  0.4452545013153629  0.5556153100008754  0.3865921054701699
  0.5575320193309984  0.4477080363490285  0.1330389162132981
  0.1058796992778074  0.5587310688207560  0.8685783914717048
  0.2260587100651567  0.4439880218057289  0.5976638846776522
  0.7708006962697029  0.5508450447080298  0.3834766235222098
  0.8881927114832621  0.4415731384092881  0.1294636767597641
  0.4579909621136365  0.5619620514066502  0.8779131807352252
  0.5620028980760272  0.4504968808930306  0.6329756202567610
  0.0958370358857656  0.8955383114005566  0.3953141611949029
  0.2228706098784987  0.7781281829452157  0.1122106429980282
  0.7794624276760760  0.8897897904290865  0.8846237281882300
  0.8850635152621201  0.7748155734272241  0.6348499474795994
  0.4565336312558450  0.8885219236859501  0.3880918577785203
  0.5539591958098959  0.7759232544905850  0.1334666611337117
  0.1066975247462800  0.8814763714032491  0.8695989024904114
  0.2235911136341839  0.7791040322220851  0.6275775384328105
  0.7740442511950579  0.8811688198730960  0.3851767848457833
  0.8878778052855469  0.7783055728593784  0.1286164642209045
  0.4438549756189296  0.8825266462255058  0.8755225907029953
  0.5601168422935104  0.7790891324533754  0.6340828503508426
 
             NaN             NaN             NaN
             NaN             NaN             NaN
             NaN             NaN             NaN
             NaN             NaN             NaN
             NaN             NaN             NaN
             NaN             NaN             NaN
             NaN             NaN             NaN
             NaN             NaN             NaN
             NaN             NaN             NaN
             NaN             NaN             NaN
             NaN             NaN             NaN
             NaN             NaN             NaN
             NaN             NaN             NaN
             NaN             NaN             NaN
             NaN             NaN             NaN
             NaN             NaN             NaN
             NaN             NaN             NaN
             NaN             NaN             NaN
             NaN             NaN             NaN
             NaN             NaN             NaN
             NaN             NaN             NaN
             NaN             NaN             NaN
             NaN             NaN             NaN
             NaN             NaN             NaN
             NaN             NaN             NaN
             NaN             NaN             NaN
             NaN             NaN             NaN
             NaN             NaN             NaN
             NaN             NaN             NaN
             NaN             NaN             NaN
             NaN             NaN             NaN
             NaN             NaN             NaN
             NaN             NaN             NaN
             NaN             NaN             NaN
             NaN             NaN             NaN
             NaN             NaN             NaN
             NaN             NaN             NaN
             NaN             NaN             NaN
             NaN             NaN             NaN
             NaN             NaN             NaN
             NaN             NaN             NaN
             NaN             NaN             NaN
             NaN             NaN             NaN
             NaN             NaN             NaN
             NaN             NaN             NaN
             NaN             NaN             NaN
             NaN             NaN             NaN
             NaN             NaN             NaN
             NaN             NaN             NaN
             NaN             NaN             NaN
             NaN             NaN             NaN
             NaN             NaN             NaN
             NaN             NaN             NaN
             NaN             NaN             NaN
             NaN             NaN             NaN
             NaN             NaN             NaN
             NaN             NaN             NaN
             NaN             NaN             NaN
             NaN             NaN             NaN
             NaN             NaN             NaN
             NaN             NaN             NaN
             NaN             NaN             NaN
             NaN             NaN             NaN
             NaN             NaN             NaN
             NaN             NaN             NaN
             NaN             NaN             NaN
             NaN             NaN             NaN
             NaN             NaN             NaN
             NaN             NaN             NaN
             NaN             NaN             NaN
             NaN             NaN             NaN
             NaN             NaN             NaN
