Al   Hf   N                             
   1.00000000000000     
     9.4834002854936372    0.0094455443066936    0.0101118013109363
    -4.7455327840498107    8.2045959412059783    0.0061821558128587
     0.0064582705746763   -0.0075380829930668   10.1373176774407412
   Al   Hf   N 
    34     2    36
Direct
  0.2236477231550396  0.1153367020312857  0.4038083222619449
  0.8828417265872304  0.1076310464974384  0.8949103328374335
  0.7769229666856674  0.2217703521181349  0.6470315307514980
  0.5607550559977383  0.1150214160163685  0.3969115699637058
  0.4421828620653940  0.2261726346489823  0.1486326786473313
  0.2245167906975993  0.1074679573590984  0.8891731589736196
  0.1091471602346985  0.2201981856931710  0.6484484441080482
  0.8842065484562269  0.1082710850291519  0.4031232039773869
  0.7709578823068810  0.2203643192142621  0.1461960866150491
  0.5555063099938593  0.1135991988306344  0.8972422097954009
  0.4463141479536503  0.2225078694108262  0.6452962672540536
  0.2290127536826816  0.4533903879179491  0.4062610400866760
  0.1046090667623147  0.5525906990873111  0.1353061772186024
  0.8853223696358654  0.4428984111119618  0.8941768255638678
  0.7783318959332064  0.5556401135530251  0.6444221079679480
  0.5564513008646728  0.4437352096778540  0.3958040855044658
  0.4442252615419378  0.5496446238173576  0.1471903355152619
  0.2252782388992358  0.4495245917682098  0.8866261681906948
  0.1102716529757473  0.5546506284682096  0.6507254762285299
  0.8825532264860101  0.4370517166982850  0.3941125328702881
  0.7770904204863669  0.5547291865770916  0.1448525202555402
  0.5569162996585746  0.4443851557291651  0.8940100067073971
  0.4471082818318308  0.5565020881962823  0.6463472743325909
  0.1070180930455606  0.8855622090438331  0.1425271057024702
  0.8861547251168602  0.7757673841391721  0.8969246286597397
  0.7769510958635024  0.8873055680072284  0.6484559634331504
  0.5521247074944995  0.7745577564078374  0.3995581315816779
  0.4523992137448616  0.8935983178411746  0.1377972047244569
  0.2209513575925968  0.7774816178450550  0.8976064159536605
  0.1073357371083219  0.8882035490508073  0.6513363371251515
  0.8845037425551467  0.7790328203177737  0.3959257360941706
  0.7708888073552984  0.8838217368285655  0.1486313395010157
  0.5559321190564646  0.7751189171256030  0.8978155611248937
  0.4467269829059006  0.8888902258090638  0.6531055313048668
  0.1247721420729277  0.2304495628644005  0.1473334264970489
  0.2278543677098099  0.7683901883323685  0.3894358760986307
  0.1092027371744635  0.2243114632640797  0.3599759984824402
  0.2302235566411284  0.0951142964376501  0.0741586674098045
  0.7762834964275456  0.2220689368993547  0.8354629877457000
  0.8862853108155804  0.1091576271312960  0.5924899572616837
  0.4451292728942278  0.2201962884000395  0.3413641394699951
  0.5541612559549165  0.1153782908761301  0.0852044617251622
  0.1095355026901501  0.2204174030491259  0.8425731989136693
  0.2221641847135629  0.1094250420028260  0.5930151944716400
  0.7770384513952990  0.2200762147921154  0.3369088806819533
  0.8702519613872752  0.1016216075066652  0.0841947711533990
  0.4460738611988901  0.2230535140797585  0.8333796351435012
  0.5553431018058035  0.1087994305945799  0.5874350895873519
  0.0927730498013659  0.5249992372474139  0.3212379986288951
  0.2320519898229705  0.4687146492107317  0.0713959469444276
  0.7780174568260207  0.5557073584377790  0.8337183991299284
  0.8902571379650652  0.4444566444394837  0.5849340099317786
  0.4488974593709685  0.5549292754318458  0.3374889164790105
  0.5605436886355335  0.4459593374327611  0.0822638722963731
  0.1078219933573905  0.5559670869789173  0.8380629007680511
  0.2221570810549665  0.4433460268448357  0.5969827368767540
  0.7793321186514959  0.5557558335261845  0.3360872850239289
  0.8840344706597350  0.4414008928601305  0.0826830863641206
  0.4475126561410221  0.5560119218836519  0.8341289379722383
  0.5567163819635468  0.4442766901314599  0.5856457473250316
  0.1027853021874776  0.9003783480612881  0.3321214667681431
  0.2219149747749114  0.7773797203015036  0.0932245379310359
  0.7770042527864831  0.8869010073809065  0.8372376917818372
  0.8888110609816877  0.7778377825962863  0.5862083946626129
  0.4701142807386134  0.9048946074497195  0.3250674842824210
  0.5544660461725641  0.7730195781993459  0.0860021034264378
  0.1072907332363116  0.8851745028964473  0.8386906688277875
  0.2214685173963815  0.7802834903514508  0.6021964106448507
  0.7751103013680734  0.8883350984130871  0.3391008040703056
  0.8862613189251860  0.7765354411941416  0.0868032751004932
  0.4447142936003701  0.8888157041562508  0.8427946738000500
  0.5569575820948032  0.7790899649843084  0.5906047182529193
 
             NaN             NaN             NaN
             NaN             NaN             NaN
             NaN             NaN             NaN
             NaN             NaN             NaN
             NaN             NaN             NaN
             NaN             NaN             NaN
             NaN             NaN             NaN
             NaN             NaN             NaN
             NaN             NaN             NaN
             NaN             NaN             NaN
             NaN             NaN             NaN
             NaN             NaN             NaN
             NaN             NaN             NaN
             NaN             NaN             NaN
             NaN             NaN             NaN
             NaN             NaN             NaN
             NaN             NaN             NaN
             NaN             NaN             NaN
             NaN             NaN             NaN
             NaN             NaN             NaN
             NaN             NaN             NaN
             NaN             NaN             NaN
             NaN             NaN             NaN
             NaN             NaN             NaN
             NaN             NaN             NaN
             NaN             NaN             NaN
             NaN             NaN             NaN
             NaN             NaN             NaN
             NaN             NaN             NaN
             NaN             NaN             NaN
             NaN             NaN             NaN
             NaN             NaN             NaN
             NaN             NaN             NaN
             NaN             NaN             NaN
             NaN             NaN             NaN
             NaN             NaN             NaN
             NaN             NaN             NaN
             NaN             NaN             NaN
             NaN             NaN             NaN
             NaN             NaN             NaN
             NaN             NaN             NaN
             NaN             NaN             NaN
             NaN             NaN             NaN
             NaN             NaN             NaN
             NaN             NaN             NaN
             NaN             NaN             NaN
             NaN             NaN             NaN
             NaN             NaN             NaN
             NaN             NaN             NaN
             NaN             NaN             NaN
             NaN             NaN             NaN
             NaN             NaN             NaN
             NaN             NaN             NaN
             NaN             NaN             NaN
             NaN             NaN             NaN
             NaN             NaN             NaN
             NaN             NaN             NaN
             NaN             NaN             NaN
             NaN             NaN             NaN
             NaN             NaN             NaN
             NaN             NaN             NaN
             NaN             NaN             NaN
             NaN             NaN             NaN
             NaN             NaN             NaN
             NaN             NaN             NaN
             NaN             NaN             NaN
             NaN             NaN             NaN
             NaN             NaN             NaN
             NaN             NaN             NaN
             NaN             NaN             NaN
             NaN             NaN             NaN
             NaN             NaN             NaN
