Al   Hf   N                             
   1.00000000000000     
     9.4844100413278607    0.0067448736247445    0.0041228998489816
    -4.7373968582029145    8.2042071197851172    0.0006310161552711
     0.0046233380803620    0.0018836377821006   10.1367236209107556
   Al   Hf   N 
    34     2    36
Direct
  0.2254077189766240  0.1112144225832537  0.3118228272673289
  0.8840957654981259  0.1082863548965333  0.7946004202652494
  0.7774289380499383  0.2238253962984264  0.5484270993695486
  0.5604671838975462  0.1154999283086891  0.2990116551660125
  0.4430328017043094  0.2250300267130673  0.0502874059581226
  0.2256853900489053  0.1135203817903902  0.7975298672547321
  0.1108682775252797  0.2216725988228948  0.5502892081366698
  0.8814735209775839  0.1069750971984367  0.3045252568043906
  0.7714951652215137  0.2193285582846700  0.0496342925885879
  0.5568939190341557  0.1115842538232503  0.7991719226865851
  0.4472386303516057  0.2234867101155784  0.5529543696286675
  0.2254076411539563  0.4466699344183191  0.3118228097166212
  0.1078658955566938  0.5583808974167559  0.0452993866928755
  0.8858051688563312  0.4418535335182762  0.8028958950564109
  0.7768794505437644  0.5546781689579992  0.5540827334987227
  0.5567742978871540  0.4446254957416045  0.3043598161163306
  0.4430326273864054  0.5504790341475971  0.0502873726870687
  0.2256853917951262  0.4446418010175341  0.7975298472741802
  0.1072972560463966  0.5492101864864656  0.5620747971934535
  0.8896350662144583  0.4492650209949189  0.2988896882082221
  0.7776501930311132  0.5550634202428313  0.0520952516636983
  0.5552319050483113  0.4438544191720249  0.8023759252496431
  0.4472385680828324  0.5562288356281881  0.5529543204594327
  0.1078658923113479  0.8819616854572623  0.0452994154127581
  0.8858051480905380  0.7764286618478127  0.8028959164951646
  0.7774287845135414  0.8860802410827859  0.5484270961690213
  0.5604670947324087  0.7774438990583855  0.2990116092660099
  0.4497740319251678  0.8911252731284216  0.0446284152686711
  0.2243074644330503  0.7783921564382146  0.8013070407120104
  0.1072972076207370  0.8905641056721374  0.5620748089286027
  0.8896348793587120  0.7728466563778555  0.2988897495239567
  0.7714950742715089  0.8846429868499387  0.0496343272078453
  0.5568938982289903  0.7777864809616745  0.7991719561706131
  0.4503192437696968  0.8913980691475933  0.5528449605670528
  0.1243027588324137  0.2283896205182248  0.0597176279105395
  0.2080537475054974  0.7702653508125773  0.3027295780750913
  0.1108429174807412  0.2216596887107411  0.3542537185589095
  0.2293518025275017  0.0888122371630893  0.1252030399157227
  0.7770514444033647  0.2198681905792458  0.8595257757573475
  0.8874949383304072  0.1099859287317620  0.6044470587826810
  0.4467402692875956  0.2225834246330711  0.3638064334874859
  0.5533737090899882  0.1112146426071435  0.1087013721559835
  0.1062883322676722  0.2193825213120568  0.8470764947239972
  0.2248022250718106  0.1143135379797340  0.6101590120629395
  0.7785101465925754  0.2260057928275661  0.3594255838897709
  0.8697063017831488  0.1010914972400624  0.1149126974952304
  0.4456213643520099  0.2209192333913527  0.8588028274760159
  0.5571874121178872  0.1120785712936532  0.6103312544734232
  0.0999555017547001  0.5313565417376325  0.3778011833786966
  0.2293515854457882  0.4730162338210951  0.1252030149809821
  0.7768725516270288  0.5546746873628512  0.8623027702588762
  0.8856445317588801  0.4423588124753534  0.6149799379424603
  0.4467402466915475  0.5566333691608529  0.3638063760648438
  0.5600784436498872  0.4462775652996270  0.1155584396549452
  0.1108578847350846  0.5528644488224357  0.8556982585877222
  0.2248021756756903  0.4429658062890407  0.6101589838961560
  0.7741314474675270  0.5533040037089221  0.3657619737595417
  0.8876121699062167  0.4412874240941249  0.1061713124196222
  0.4456213404160557  0.5571788097944012  0.8588028326688730
  0.5556705380858306  0.4440738417668983  0.6131105831654774
  0.0999553076785041  0.9010755205319058  0.3778011953108792
  0.2266215919388613  0.7795492705584234  0.0890959983288132
  0.7770514191466930  0.8896600236748374  0.8595258337320268
  0.8856444889853686  0.7757628083258947  0.6149799704369652
  0.4623401800906952  0.8974083465450927  0.3631034288523672
  0.5533735987836668  0.7746356329702742  0.1087013146868513
  0.1108578540365141  0.8904701540606115  0.8556983107656151
  0.2232782016104533  0.7778777010411140  0.6076398041163349
  0.7785100225177691  0.8849808639895269  0.3594255805523054
  0.8876122230363919  0.7788015781437292  0.1061714079021489
  0.4472314338870152  0.8898540662192879  0.8551809309803642
  0.5571873290345719  0.7775858783329864  0.6103312850909196
 
             NaN             NaN             NaN
             NaN             NaN             NaN
             NaN             NaN             NaN
             NaN             NaN             NaN
             NaN             NaN             NaN
             NaN             NaN             NaN
             NaN             NaN             NaN
             NaN             NaN             NaN
             NaN             NaN             NaN
             NaN             NaN             NaN
             NaN             NaN             NaN
             NaN             NaN             NaN
             NaN             NaN             NaN
             NaN             NaN             NaN
             NaN             NaN             NaN
             NaN             NaN             NaN
             NaN             NaN             NaN
             NaN             NaN             NaN
             NaN             NaN             NaN
             NaN             NaN             NaN
             NaN             NaN             NaN
             NaN             NaN             NaN
             NaN             NaN             NaN
             NaN             NaN             NaN
             NaN             NaN             NaN
             NaN             NaN             NaN
             NaN             NaN             NaN
             NaN             NaN             NaN
             NaN             NaN             NaN
             NaN             NaN             NaN
             NaN             NaN             NaN
             NaN             NaN             NaN
             NaN             NaN             NaN
             NaN             NaN             NaN
             NaN             NaN             NaN
             NaN             NaN             NaN
             NaN             NaN             NaN
             NaN             NaN             NaN
             NaN             NaN             NaN
             NaN             NaN             NaN
             NaN             NaN             NaN
             NaN             NaN             NaN
             NaN             NaN             NaN
             NaN             NaN             NaN
             NaN             NaN             NaN
             NaN             NaN             NaN
             NaN             NaN             NaN
             NaN             NaN             NaN
             NaN             NaN             NaN
             NaN             NaN             NaN
             NaN             NaN             NaN
             NaN             NaN             NaN
             NaN             NaN             NaN
             NaN             NaN             NaN
             NaN             NaN             NaN
             NaN             NaN             NaN
             NaN             NaN             NaN
             NaN             NaN             NaN
             NaN             NaN             NaN
             NaN             NaN             NaN
             NaN             NaN             NaN
             NaN             NaN             NaN
             NaN             NaN             NaN
             NaN             NaN             NaN
             NaN             NaN             NaN
             NaN             NaN             NaN
             NaN             NaN             NaN
             NaN             NaN             NaN
             NaN             NaN             NaN
             NaN             NaN             NaN
             NaN             NaN             NaN
             NaN             NaN             NaN
