Al   Hf   N                             
   1.00000000000000     
     9.5214692425856970    0.0106851871994458    0.0122675603484886
    -4.7861377619622285    8.2457215094186793   -0.0020764566836441
    -0.0861262233985577   -0.0230070068922934   10.4119006822639495
   Al   Hf   N 
    34     2    36
Direct
  0.2226483347241065  0.1224444251836593  0.4027365541749306
  0.8848853669460847  0.1092874921663546  0.8222697804107960
  0.7869693514045336  0.2272421953878875  0.5719057249141851
  0.5529089181897699  0.1113089354416476  0.3947479572064651
  0.4451662364982930  0.2112708936895760  0.1438296010492462
  0.2302511105687632  0.1121713113299241  0.8821105233520689
  0.1180881818244133  0.2252287632562852  0.6461861488230102
  0.8733569802571239  0.1042909199055610  0.3279338023854285
  0.7817713194364769  0.2227333754185105  0.0715084080356993
  0.5525591465534190  0.1105175572522659  0.8900173703525979
  0.4462149615766905  0.2178004795901395  0.6418334379776031
  0.2239657734171817  0.4344637741642778  0.4017813339552268
  0.1048299223130871  0.5600964463989350  0.0571942946466585
  0.8854492008950066  0.4418296634210822  0.8193334418811297
  0.7758558543941361  0.5545007159216073  0.5694975765175487
  0.5574825176819934  0.4431471615921166  0.3244791213168417
  0.4410054774213335  0.5514479961637961  0.1403549769624530
  0.2312594845567393  0.4506977013449736  0.8821490674514800
  0.1047016548900596  0.5516476205849243  0.5792795841146554
  0.8868503559549711  0.4439717895165698  0.3193740951913712
  0.7762443039941742  0.5534610069717752  0.0707849177297819
  0.5637214385740706  0.4468553596689345  0.8214234727974491
  0.4448235162991740  0.5559882764805146  0.6397247071028909
  0.1039017388569138  0.8744802058648566  0.0572904097612371
  0.8843790814316329  0.7749667699211880  0.8193774125269231
  0.7781409140829619  0.8885987818045600  0.5696593811683328
  0.5643667376728873  0.7827240235726823  0.3199982827286110
  0.4516951963745695  0.8911574902016939  0.1135323359329704
  0.2157861120986709  0.7745378980144029  0.8166474317898851
  0.1025102306986068  0.8863428713939980  0.5802120203556537
  0.8865225827413702  0.7746425360730999  0.3188409279655765
  0.7749206590043122  0.8866512880907622  0.0702228368514063
  0.5642739626157951  0.7841735895706000  0.8225657253952929
  0.4490687804711136  0.8958318317747346  0.6351526622197214
  0.1236031202723558  0.2251126384056681  0.1273536768331926
  0.2046871536457344  0.7701772425614228  0.3246887600911881
  0.1046126200749849  0.2187788940254457  0.3449999671950456
  0.2390182569258461  0.0997111108396151  0.0661512599414052
  0.7860916131098501  0.2254208018636135  0.8830494208033944
  0.8854521283476866  0.1085542838691584  0.6348241497915086
  0.4361837157995610  0.2109828663004959  0.3325118563529655
  0.5530704819527689  0.1107318202661178  0.0749188080444683
  0.1199667968879115  0.2258959630295063  0.8351513589188556
  0.2271577300962811  0.1183002453632233  0.5892520800939781
  0.7821812840644932  0.2290375544892053  0.3863930963223964
  0.8558952228685718  0.0936374493954122  0.1457808531702475
  0.4466751611822369  0.2173293010759167  0.8266328918460325
  0.5531330181132105  0.1109554413578204  0.5811876965223375
  0.0966270225565024  0.5338240584723652  0.3953988418782691
  0.2368720731080705  0.4667953216275001  0.0650053616042451
  0.7786847606911612  0.5548662859722103  0.8843027203600391
  0.8855708759523300  0.4435975671173233  0.6354173240036075
  0.4359437151992998  0.5520116616700500  0.3333461726582141
  0.5620446283471957  0.4427183707446657  0.1329358115909425
  0.1057214905703684  0.5571595679988783  0.8710723171598241
  0.2267433662872987  0.4419365906002297  0.5885643914525757
  0.7744570403400529  0.5529845232072947  0.3840516545645939
  0.8906385327130297  0.4428506737217623  0.1299311666878950
  0.4463017344704829  0.5567946207632037  0.8297718742308007
  0.5626245342135897  0.4464072464928331  0.6297795240899685
  0.0946510787338655  0.8960110926320523  0.3963748834499575
  0.2229140304738430  0.7761820242375910  0.1122253826523918
  0.7812903300109268  0.8912281803229953  0.8842455076554833
  0.8834557042083681  0.7749054666832719  0.6349117018299466
  0.4621609702876706  0.9019105604017839  0.3340731379992655
  0.5607099622624755  0.7753242596389738  0.1271569302477854
  0.1042156769889318  0.8803791811143654  0.8710457662637920
  0.2169184966514880  0.7757457564284714  0.6271614208164372
  0.7770153444402348  0.8840749052570658  0.3853189387027337
  0.8895094747078538  0.7788948458515783  0.1286566834979506
  0.4454186956660680  0.8924966486242903  0.8364715583408953
  0.5631538974894970  0.7837731724808155  0.6306597273924699
 
             NaN             NaN             NaN
             NaN             NaN             NaN
             NaN             NaN             NaN
             NaN             NaN             NaN
             NaN             NaN             NaN
             NaN             NaN             NaN
             NaN             NaN             NaN
             NaN             NaN             NaN
             NaN             NaN             NaN
             NaN             NaN             NaN
             NaN             NaN             NaN
             NaN             NaN             NaN
             NaN             NaN             NaN
             NaN             NaN             NaN
             NaN             NaN             NaN
             NaN             NaN             NaN
             NaN             NaN             NaN
             NaN             NaN             NaN
             NaN             NaN             NaN
             NaN             NaN             NaN
             NaN             NaN             NaN
             NaN             NaN             NaN
             NaN             NaN             NaN
             NaN             NaN             NaN
             NaN             NaN             NaN
             NaN             NaN             NaN
             NaN             NaN             NaN
             NaN             NaN             NaN
             NaN             NaN             NaN
             NaN             NaN             NaN
             NaN             NaN             NaN
             NaN             NaN             NaN
             NaN             NaN             NaN
             NaN             NaN             NaN
             NaN             NaN             NaN
             NaN             NaN             NaN
             NaN             NaN             NaN
             NaN             NaN             NaN
             NaN             NaN             NaN
             NaN             NaN             NaN
             NaN             NaN             NaN
             NaN             NaN             NaN
             NaN             NaN             NaN
             NaN             NaN             NaN
             NaN             NaN             NaN
             NaN             NaN             NaN
             NaN             NaN             NaN
             NaN             NaN             NaN
             NaN             NaN             NaN
             NaN             NaN             NaN
             NaN             NaN             NaN
             NaN             NaN             NaN
             NaN             NaN             NaN
             NaN             NaN             NaN
             NaN             NaN             NaN
             NaN             NaN             NaN
             NaN             NaN             NaN
             NaN             NaN             NaN
             NaN             NaN             NaN
             NaN             NaN             NaN
             NaN             NaN             NaN
             NaN             NaN             NaN
             NaN             NaN             NaN
             NaN             NaN             NaN
             NaN             NaN             NaN
             NaN             NaN             NaN
             NaN             NaN             NaN
             NaN             NaN             NaN
             NaN             NaN             NaN
             NaN             NaN             NaN
             NaN             NaN             NaN
             NaN             NaN             NaN
