Al   Hf   N                             
   1.00000000000000     
     9.5090369520807165    0.0141261248673598    0.0181467354765620
    -4.7234668794828156    8.2416388613815741    0.0147190274660922
    -0.0462589596543542    0.0123126511355529   10.1719201103151597
   Al   Hf   N 
    34     2    36
Direct
  0.2295919713736012  0.1237878801280488  0.4018731676637231
  0.8819155269603911  0.1074925113764564  0.8885916990490941
  0.7770031312104990  0.2217523029457595  0.6407329842110201
  0.5632274961194810  0.1176254792766045  0.3905275194233369
  0.4457416766146949  0.2257163710232319  0.1420232186969344
  0.2278094928698664  0.1127152202776216  0.8790578062523196
  0.1086761049440739  0.2216226466705962  0.6446663371020378
  0.8850545773845582  0.1075880829590048  0.3953696199467203
  0.7725315312731880  0.2209217047410732  0.1395265609269529
  0.5552318477290612  0.1120443119190853  0.8903914886936093
  0.4489470984021935  0.2256072810556233  0.6412480706740524
  0.2254725210146873  0.4477233877142410  0.3976161238078788
  0.1041965464651113  0.5512955363504233  0.1332760767819750
  0.8855870293407264  0.4425491235223191  0.8874914554042874
  0.7744058973644314  0.5524896969505377  0.6399514684348233
  0.5560151284277168  0.4452139082945834  0.3890155621309859
  0.4434678733521977  0.5522970939417604  0.1401989734003877
  0.2242220017939189  0.4514025305396387  0.8808287795650926
  0.1049787502248876  0.5458402669575690  0.6347102689733219
  0.8808021728054953  0.4352903338296557  0.3874365538443811
  0.7779860417096103  0.5560388939670986  0.1383441143697866
  0.5554232799507659  0.4442384426925088  0.8895575442031003
  0.4461951250977734  0.5562698385130318  0.6390167361841392
  0.1148977204947528  0.8767322050821065  0.0657089853118364
  0.8777888481681515  0.7709825965783210  0.8862909795541327
  0.7747481331750379  0.8871909327694070  0.6437928628943084
  0.5570208202112568  0.7773448504555347  0.3922102274791115
  0.4545637259478497  0.8950611032595290  0.1363763496265236
  0.2181300286187806  0.7781283252732862  0.8158157470579752
  0.1044798752793312  0.8916346523383538  0.5835613828232340
  0.8777411288728914  0.7743951161107887  0.3930038337130526
  0.7724723931629924  0.8832489224865725  0.1406879114605815
  0.5524906486580790  0.7755164437617239  0.8910752824156347
  0.4549042219121873  0.8939165866161147  0.6379159680372410
  0.1234827905983735  0.2272324197462297  0.1385653883441833
  0.2280778703563087  0.7695611790909851  0.3629147026713184
  0.1091422922285759  0.2212703522850319  0.3500437754351395
  0.2364136658285219  0.1019222071311034  0.0681624597660075
  0.7757189391234363  0.2218476738207045  0.8288923213147896
  0.8866693334862958  0.1089200130898647  0.5854517665951349
  0.4462168806886879  0.2224910605574024  0.3339757460041568
  0.5557286584733347  0.1146096164124373  0.0781946247420606
  0.1084667542681572  0.2216885484808770  0.8370976398136563
  0.2278479608069688  0.1201983452369504  0.5939734414405180
  0.7775009065632830  0.2201536162156970  0.3293986000685152
  0.8711675837535680  0.1017436397926446  0.0773226494455770
  0.4484352480032143  0.2247094639114096  0.8280996518062622
  0.5573066765488477  0.1128762712220208  0.5797637151189150
  0.0887190478580280  0.5164446363021966  0.3195880578218464
  0.2309518289122110  0.4685399685628369  0.0650265997773829
  0.7745089052347609  0.5521878450271558  0.8279952877575809
  0.8858859115212425  0.4423198530370698  0.5770012842492775
  0.4460992691150025  0.5567891064703261  0.3311495345924627
  0.5592476146561864  0.4465077848797776  0.0778313219282012
  0.1035064945624811  0.5498966928600524  0.8233766709674839
  0.2224263175870789  0.4419282620829605  0.5865446449506280
  0.7780078425601289  0.5553357756624635  0.3290913916692020
  0.8852956811489676  0.4424929134712556  0.0757541967905766
  0.4457859500913131  0.5562891533510808  0.8272646952836027
  0.5554695759387442  0.4443558822505693  0.5786236212593892
  0.1019332363266301  0.9003964628636965  0.3907390525401837
  0.2240511409243879  0.7777652975215616  0.1317675275482770
  0.7737589394209508  0.8874976831117678  0.8311531581433371
  0.8759730053102928  0.7709112612140316  0.5861462700229794
  0.4791579445414200  0.9097553042673354  0.3239653467590600
  0.5548509385404827  0.7746739144081829  0.0791090613528667
  0.1072747326452586  0.8820847663467362  0.8672489008628332
  0.2211948815529539  0.7798618597959930  0.6130544036842167
  0.7773585107928440  0.8884224110532912  0.3303998782618081
  0.8847107222313966  0.7752036576386487  0.0785419506541061
  0.4472676839948306  0.8912342081764351  0.8287744555075136
  0.5574039084667461  0.7781494421384920  0.5815495895342622
 
             NaN             NaN             NaN
             NaN             NaN             NaN
             NaN             NaN             NaN
             NaN             NaN             NaN
             NaN             NaN             NaN
             NaN             NaN             NaN
             NaN             NaN             NaN
             NaN             NaN             NaN
             NaN             NaN             NaN
             NaN             NaN             NaN
             NaN             NaN             NaN
             NaN             NaN             NaN
             NaN             NaN             NaN
             NaN             NaN             NaN
             NaN             NaN             NaN
             NaN             NaN             NaN
             NaN             NaN             NaN
             NaN             NaN             NaN
             NaN             NaN             NaN
             NaN             NaN             NaN
             NaN             NaN             NaN
             NaN             NaN             NaN
             NaN             NaN             NaN
             NaN             NaN             NaN
             NaN             NaN             NaN
             NaN             NaN             NaN
             NaN             NaN             NaN
             NaN             NaN             NaN
             NaN             NaN             NaN
             NaN             NaN             NaN
             NaN             NaN             NaN
             NaN             NaN             NaN
             NaN             NaN             NaN
             NaN             NaN             NaN
             NaN             NaN             NaN
             NaN             NaN             NaN
             NaN             NaN             NaN
             NaN             NaN             NaN
             NaN             NaN             NaN
             NaN             NaN             NaN
             NaN             NaN             NaN
             NaN             NaN             NaN
             NaN             NaN             NaN
             NaN             NaN             NaN
             NaN             NaN             NaN
             NaN             NaN             NaN
             NaN             NaN             NaN
             NaN             NaN             NaN
             NaN             NaN             NaN
             NaN             NaN             NaN
             NaN             NaN             NaN
             NaN             NaN             NaN
             NaN             NaN             NaN
             NaN             NaN             NaN
             NaN             NaN             NaN
             NaN             NaN             NaN
             NaN             NaN             NaN
             NaN             NaN             NaN
             NaN             NaN             NaN
             NaN             NaN             NaN
             NaN             NaN             NaN
             NaN             NaN             NaN
             NaN             NaN             NaN
             NaN             NaN             NaN
             NaN             NaN             NaN
             NaN             NaN             NaN
             NaN             NaN             NaN
             NaN             NaN             NaN
             NaN             NaN             NaN
             NaN             NaN             NaN
             NaN             NaN             NaN
             NaN             NaN             NaN
