Al   Hf   N                             
   1.00000000000000     
     9.4844123159860363    0.0069938116320589    0.0059030262717991
    -4.7376196707671809    8.2040804834643684    0.0017104611373554
     0.0026864722393712   -0.0006097427938647   10.1367202348466989
   Al   Hf   N 
    34     2    36
Direct
  0.2251482099374584  0.1170823305550570  0.4147765329785074
  0.8826953548476837  0.1076465984890831  0.9072324552119966
  0.7761208296103419  0.2212578374773031  0.6609055927652037
  0.5615194993758266  0.1144009939945931  0.4104430525633873
  0.4433800746090171  0.2261977226278162  0.1611864185725764
  0.2257176142792545  0.1084803443988918  0.8980005569586353
  0.1087071428424551  0.2206521562809698  0.6587706180008297
  0.8832409585883667  0.1079191783314357  0.4154485148146279
  0.7725478186941146  0.2216008341014373  0.1610657785082594
  0.5555859041821307  0.1129643357129808  0.9116496972346795
  0.4472092098082499  0.2226155660109299  0.6571799851693854
  0.2251486348387317  0.4406632975312093  0.4147765760044848
  0.1076070853331430  0.5523742082907646  0.1482524335456503
  0.8857761621120801  0.4428158437333565  0.9071218121898710
  0.7777825738775519  0.5551899588163920  0.6577011497378464
  0.5553645275792292  0.4439808632612667  0.4079815812778591
  0.4433800527184815  0.5497795992878878  0.1611864921007680
  0.2257177513921036  0.4498350284079820  0.8980003757996329
  0.1073293419663202  0.5544028685475197  0.6625458564888831
  0.8899819683917940  0.4485653009347601  0.4097899832016765
  0.7762404108023233  0.5544189828500734  0.1557156244120605
  0.5561349594703486  0.4443662585404766  0.9059925524194341
  0.4472093794370480  0.5571911313029005  0.6571799454849128
  0.1076070650072154  0.8878301485730375  0.1482528817183919
  0.8857762191070009  0.7755581338433046  0.9071218870645268
  0.7761208934000194  0.8874604256777445  0.6609056065400765
  0.5615195734202914  0.7797158217734221  0.4104431356546172
  0.4515415092174848  0.8920693356368261  0.1555505014612493
  0.2221463452355010  0.7773720064847822  0.9097875352425078
  0.1073291975183466  0.8855235151031096  0.6625458289587272
  0.8899816234926234  0.7740138265062484  0.4097899704721897
  0.7725477916458914  0.8835445835562794  0.1610657433438973
  0.5555860485265214  0.7752190607552336  0.9116496224903372
  0.4489188649496896  0.8907581212605109  0.6654769538551335
  0.1249618066556835  0.2287800117025540  0.1573458653419948
  0.2087122880525385  0.7706547741321899  0.4003581472964726
  0.1063927596093137  0.2194946875735369  0.3709796616996996
  0.2330592190288101  0.0979687509520417  0.0822745667501863
  0.7758271180666938  0.2214582707167168  0.8497459202412543
  0.8857832290080196  0.1091903215854302  0.6048962931998361
  0.4454020311970552  0.2202422404911673  0.3539052721497811
  0.5545047298318622  0.1140635235334173  0.1006510301173336
  0.1097362859840629  0.2211666917172508  0.8524373191862082
  0.2221561369277154  0.1085738800553244  0.6043780980922122
  0.7796407637962801  0.2244084470904468  0.3513759787141950
  0.8706743483050587  0.1016360254529189  0.0969739675809365
  0.4473699904738666  0.2232812525268457  0.8450960801908352
  0.5559630365474106  0.1093840602641691  0.6005513618366649
  0.1036626152782034  0.5260275885488426  0.3348727340646889
  0.2330596140978045  0.4676883534766674  0.0822741549234038
  0.7773438790887965  0.5549705174518280  0.8469661482409805
  0.8873927075101378  0.4418652657829654  0.6012743104473941
  0.4454024277979727  0.5577567595380017  0.3539054517740752
  0.5588828191823865  0.4457400600684736  0.0943136896429948
  0.1082122599191280  0.5560787572428438  0.8499169242337317
  0.2221562866363769  0.4461794966967219  0.6043781735460172
  0.7729358460563702  0.5527662740148998  0.3445177133826931
  0.8862742164188901  0.4424108100973285  0.0962698195054941
  0.4473701420854255  0.5566857397688594  0.8450959345965430
  0.5561418020470867  0.4443695168544934  0.5977740518653576
  0.1036621574426917  0.9102310184402498  0.3348731468752248
  0.2221716610994591  0.7773845888375206  0.1058226359343450
  0.7758272738757057  0.8869660673565960  0.8497459097361855
  0.8873925788231674  0.7781247036827850  0.6012742786443539
  0.4633084873718687  0.8979525091652434  0.3451636183631379
  0.5545048150774150  0.7730385242174123  0.1006509248113403
  0.1082122500514373  0.8847305571045894  0.8499168987638370
  0.2267265674756302  0.7796618462914680  0.6129996761913006
  0.7796407450195417  0.8878292377929853  0.3513759291462648
  0.8862742488825361  0.7764610103252210  0.0962698711678485
  0.4455196061398681  0.8890582453001912  0.8556301909203796
  0.5559631653889028  0.7791764461748372  0.6005514459347054
 
             NaN             NaN             NaN
             NaN             NaN             NaN
             NaN             NaN             NaN
             NaN             NaN             NaN
             NaN             NaN             NaN
             NaN             NaN             NaN
             NaN             NaN             NaN
             NaN             NaN             NaN
             NaN             NaN             NaN
             NaN             NaN             NaN
             NaN             NaN             NaN
             NaN             NaN             NaN
             NaN             NaN             NaN
             NaN             NaN             NaN
             NaN             NaN             NaN
             NaN             NaN             NaN
             NaN             NaN             NaN
             NaN             NaN             NaN
             NaN             NaN             NaN
             NaN             NaN             NaN
             NaN             NaN             NaN
             NaN             NaN             NaN
             NaN             NaN             NaN
             NaN             NaN             NaN
             NaN             NaN             NaN
             NaN             NaN             NaN
             NaN             NaN             NaN
             NaN             NaN             NaN
             NaN             NaN             NaN
             NaN             NaN             NaN
             NaN             NaN             NaN
             NaN             NaN             NaN
             NaN             NaN             NaN
             NaN             NaN             NaN
             NaN             NaN             NaN
             NaN             NaN             NaN
             NaN             NaN             NaN
             NaN             NaN             NaN
             NaN             NaN             NaN
             NaN             NaN             NaN
             NaN             NaN             NaN
             NaN             NaN             NaN
             NaN             NaN             NaN
             NaN             NaN             NaN
             NaN             NaN             NaN
             NaN             NaN             NaN
             NaN             NaN             NaN
             NaN             NaN             NaN
             NaN             NaN             NaN
             NaN             NaN             NaN
             NaN             NaN             NaN
             NaN             NaN             NaN
             NaN             NaN             NaN
             NaN             NaN             NaN
             NaN             NaN             NaN
             NaN             NaN             NaN
             NaN             NaN             NaN
             NaN             NaN             NaN
             NaN             NaN             NaN
             NaN             NaN             NaN
             NaN             NaN             NaN
             NaN             NaN             NaN
             NaN             NaN             NaN
             NaN             NaN             NaN
             NaN             NaN             NaN
             NaN             NaN             NaN
             NaN             NaN             NaN
             NaN             NaN             NaN
             NaN             NaN             NaN
             NaN             NaN             NaN
             NaN             NaN             NaN
             NaN             NaN             NaN
