Al   Hf   N                             
   1.00000000000000     
     9.4844120662005569    0.0075369229900540    0.0038114392211032
    -4.7380833102735886    8.2038119169798485    0.0012283423609405
     0.0049491267108853    0.0013558388874762   10.1367187159310106
   Al   Hf   N 
    34     2    36
Direct
  0.2255756523468281  0.1112983991119043  0.3215965609119338
  0.8842638681070664  0.1083706326849633  0.8043700510103715
  0.7775968385356450  0.2239102000077621  0.5581964381540293
  0.5606345913351110  0.1155844563111800  0.3087799327576354
  0.4432003687218766  0.2251140745557785  0.0600558619388264
  0.2258523597656179  0.1136045013835884  0.8073014699321325
  0.1110356671314990  0.2217566469531896  0.5600586092352675
  0.8816404433320520  0.1070589451059765  0.3142970073311532
  0.7716628809632045  0.2194121356237776  0.0594023430213052
  0.5570615067038317  0.1116677080225857  0.8089396832171817
  0.4474062208344254  0.2235707741717252  0.5627268121179739
  0.2255756845142995  0.4467548460029361  0.3215959734681295
  0.1080345106028121  0.5584652118917883  0.0550724922241328
  0.8859732447465622  0.4419376767021453  0.8126693352844783
  0.7770476904516391  0.5547626613321751  0.5638567487381180
  0.5569417582807100  0.4447095721158229  0.3141332777617464
  0.4432004409300419  0.5505628655909288  0.0600557441015167
  0.2258523130644978  0.4447249043304941  0.8073013317864204
  0.1074641147685299  0.5492936102521365  0.5718476479742429
  0.8898022489799386  0.4493491927340343  0.3086603145913990
  0.7778170837227034  0.5551470227657648  0.0618667470601787
  0.5553996313836977  0.4439383926423470  0.8121469304756963
  0.4474061186497724  0.5563129335742185  0.5627266407130338
  0.1080342377016037  0.8820456381676434  0.0550726123642560
  0.8859730434595546  0.7765129377264769  0.8126695350739885
  0.7775965937414561  0.8861639879787747  0.5581964844081310
  0.5606343714597245  0.7775275172871361  0.3087798951530991
  0.4499413885467704  0.8912090600011664  0.0543985962710144
  0.2244751852124600  0.7784761292643683  0.8110762279450483
  0.1074638527484208  0.8906481938922454  0.5718481287239673
  0.8898020192033473  0.7729305471233344  0.3086603876031290
  0.7716626176408424  0.8847275563764050  0.0594023238846524
  0.5570613735687445  0.7778708700683635  0.8089396622279583
  0.4504871579887429  0.8914823770796825  0.5626144107739615
  0.1244705443548165  0.2284732691138735  0.0694906230312166
  0.2082206631328801  0.7703498661054256  0.3125028734810995
  0.1110103681160621  0.2217438883157007  0.3640244282753729
  0.2295203225303786  0.0888964356349781  0.1349757549479952
  0.7772186361109324  0.2199514091561041  0.8692947455425055
  0.8876625117791914  0.1100700042977023  0.6142162526554492
  0.4469081146481502  0.2226672857491431  0.3735784889243448
  0.5535415587757956  0.1112989952818983  0.1184700366264269
  0.1064552748251004  0.2194660288951510  0.8568484299812001
  0.2249694728025106  0.1143978831913011  0.6199304076143225
  0.7786773601109935  0.2260900824758922  0.3691953499092547
  0.8698734264100748  0.1011752165833590  0.1246832904863031
  0.4457892441077668  0.2210028591714010  0.8685717283912273
  0.5573553257317240  0.1121623582051070  0.6201001426441111
  0.1001223744956868  0.5314404959803408  0.3875734937652315
  0.2295202136211920  0.4730998788229188  0.1349750297599345
  0.7770396970359088  0.5547583219213768  0.8720743236545319
  0.8858119817917451  0.4424424855608371  0.6247527300692617
  0.4469080530350401  0.5567178988467116  0.3735783086330136
  0.5602453370219613  0.4463610552512636  0.1253303095189212
  0.1110262340888949  0.5529488794637528  0.8654701327729601
  0.2249693678379711  0.4430492940010820  0.6199302294943255
  0.7742994215780862  0.5533883201577742  0.3755348886923751
  0.8877796712812187  0.4413710678677272  0.1159415480127912
  0.4457891988570818  0.5572631058759053  0.8685716738016606
  0.5558382438811698  0.4441579186198712  0.6228819268863484
  0.1001215866085049  0.9011593949774358  0.3875742513713886
  0.2267899057694273  0.7796332569285611  0.0988688513650874
  0.7772184499179221  0.8897442682753774  0.8692947790962668
  0.8858116863158346  0.7758470475851106  0.6247530324939647
  0.4625082304715752  0.8974927384635174  0.3728723706836010
  0.5535413664405329  0.7747192928181965  0.1184700045868804
  0.1110261332562869  0.8905541176107293  0.8654702329832239
  0.2234458946727490  0.7779618553382379  0.6174097663785194
  0.7786770692425372  0.8850644195484544  0.3691953950993114
  0.8877793915516398  0.7788856862487906  0.1159414957795580
  0.4473988295092689  0.8899378362518016  0.8649501643484234
  0.5573551043456145  0.7776704333546479  0.6201001399212680
 
             NaN             NaN             NaN
             NaN             NaN             NaN
             NaN             NaN             NaN
             NaN             NaN             NaN
             NaN             NaN             NaN
             NaN             NaN             NaN
             NaN             NaN             NaN
             NaN             NaN             NaN
             NaN             NaN             NaN
             NaN             NaN             NaN
             NaN             NaN             NaN
             NaN             NaN             NaN
             NaN             NaN             NaN
             NaN             NaN             NaN
             NaN             NaN             NaN
             NaN             NaN             NaN
             NaN             NaN             NaN
             NaN             NaN             NaN
             NaN             NaN             NaN
             NaN             NaN             NaN
             NaN             NaN             NaN
             NaN             NaN             NaN
             NaN             NaN             NaN
             NaN             NaN             NaN
             NaN             NaN             NaN
             NaN             NaN             NaN
             NaN             NaN             NaN
             NaN             NaN             NaN
             NaN             NaN             NaN
             NaN             NaN             NaN
             NaN             NaN             NaN
             NaN             NaN             NaN
             NaN             NaN             NaN
             NaN             NaN             NaN
             NaN             NaN             NaN
             NaN             NaN             NaN
             NaN             NaN             NaN
             NaN             NaN             NaN
             NaN             NaN             NaN
             NaN             NaN             NaN
             NaN             NaN             NaN
             NaN             NaN             NaN
             NaN             NaN             NaN
             NaN             NaN             NaN
             NaN             NaN             NaN
             NaN             NaN             NaN
             NaN             NaN             NaN
             NaN             NaN             NaN
             NaN             NaN             NaN
             NaN             NaN             NaN
             NaN             NaN             NaN
             NaN             NaN             NaN
             NaN             NaN             NaN
             NaN             NaN             NaN
             NaN             NaN             NaN
             NaN             NaN             NaN
             NaN             NaN             NaN
             NaN             NaN             NaN
             NaN             NaN             NaN
             NaN             NaN             NaN
             NaN             NaN             NaN
             NaN             NaN             NaN
             NaN             NaN             NaN
             NaN             NaN             NaN
             NaN             NaN             NaN
             NaN             NaN             NaN
             NaN             NaN             NaN
             NaN             NaN             NaN
             NaN             NaN             NaN
             NaN             NaN             NaN
             NaN             NaN             NaN
             NaN             NaN             NaN
