Al   Hf   N                             
   1.00000000000000     
     9.4934698639504145    0.0098162442418544    0.0044182814683202
    -4.7518410185919198    8.2117497443092358    0.0017478155439031
    -0.1113496922196610   -0.0669729310334182   10.4005406953570034
   Al   Hf   N 
    34     2    36
Direct
  0.2206353830086343  0.1204099574107147  0.4010819347690315
  0.8837386431211698  0.1081615168547714  0.8211198318797273
  0.7821556663245417  0.2241672418079119  0.5703874158180682
  0.5515721648623426  0.1085644094357718  0.3897440458863102
  0.4493705060819977  0.2208006599687451  0.1406328214974977
  0.2302137183991135  0.1127003517061951  0.8795342428394903
  0.1168298017068494  0.2246964099153459  0.6445772042187841
  0.8700597407477204  0.1013267555214128  0.3259825165712158
  0.7824275195069674  0.2245185412381758  0.0690853830478630
  0.5516125394301241  0.1084276700822500  0.8881928344690380
  0.4482902036868168  0.2236266988035212  0.6378095110714668
  0.2206354939952178  0.4328145535170052  0.4010757889418883
  0.1120785831106303  0.5664401193594912  0.0581620046497306
  0.8846324878410599  0.4422003222176087  0.8187405776830943
  0.7792667821129413  0.5559135273778040  0.5667610052580443
  0.5487779905081709  0.4406805683292987  0.3793776509521507
  0.4493521855083458  0.5611216113526609  0.1406337833475035
  0.2302105398587742  0.4501002293873668  0.8795353255052518
  0.1021892191197296  0.5492246028826528  0.5792309785922782
  0.8844737866806156  0.4394234139150726  0.3177214405514945
  0.7836165762595897  0.5580931039392283  0.0718357042358946
  0.5534740865800671  0.4430330102542257  0.8821967360016103
  0.4482924699915287  0.5572303287312721  0.6378088784631757
  0.1120801123632660  0.8781990485895506  0.0581572494390556
  0.8846351588414763  0.7750178109168999  0.8187399945073253
  0.7821596574673890  0.8905535990761777  0.5703843610349040
  0.5515804295745639  0.7755863701966916  0.3897369020220793
  0.4636647501751625  0.8981102895273949  0.1326398124576329
  0.2163648570750425  0.7744759380914346  0.8141888812825258
  0.1021859919180628  0.8855240222284664  0.5792331065028762
  0.8844570597702912  0.7776300003033683  0.3177222698193063
  0.7824371125165754  0.8904906740042549  0.0690779758478683
  0.5516166261609357  0.7757736445011858  0.8881901775941756
  0.4496599176955058  0.8911124627427540  0.6376238076968335
  0.1245329389506864  0.2285132801442415  0.1267221440500279
  0.2097345766567216  0.7711933557042130  0.3320963964070316
  0.1032120560990393  0.2178728987391381  0.3435955113014231
  0.2408870560962271  0.1043936784275417  0.0635754463209395
  0.7859163254074133  0.2256234533435091  0.8817398747483551
  0.8826194909808649  0.1076110206725076  0.6345624972571144
  0.4375033036082314  0.2150619273068486  0.3283365172986237
  0.5535305923679914  0.1133945484880243  0.0728196792317135
  0.1200456884606851  0.2262960622845185  0.8321734278815214
  0.2255128636504296  0.1170168897202046  0.5881679385944167
  0.7804032250981621  0.2273649372679287  0.3853940128517976
  0.8548793267486374  0.0937542770222635  0.1450566709461185
  0.4503343437660874  0.2238091753159210  0.8224823338089919
  0.5477815601770288  0.1060079497530282  0.5765582752364367
  0.0925875114693184  0.5307491471625099  0.3950181891840501
  0.2408474375569583  0.4690601502443812  0.0635712103675630
  0.7827621560920122  0.5576564086032860  0.8831892930608092
  0.8818702125511919  0.4411535928779884  0.6348199249510600
  0.4375119884348706  0.5549825356650118  0.3283372418980832
  0.5548086557059762  0.4437079931146783  0.0889450650157499
  0.1066583643324819  0.5580654190289991  0.8706795544594996
  0.2255120423068036  0.4410970056242576  0.5881627924948702
  0.7807872561816609  0.5566656807541861  0.3773659644376934
  0.8947145383972384  0.4455412902669877  0.1301099159159946
  0.4503349500837359  0.5590751541434003  0.8224832167786786
  0.5498297638229133  0.4412154287226215  0.5761814747622580
  0.0925512526318997  0.8943812295480313  0.3950149448486968
  0.2304602694800408  0.7815368422297126  0.1153816378837220
  0.7859167950905572  0.8928421093823786  0.8817363350831826
  0.8818702464227997  0.7733167818420554  0.6348210451793648
  0.4792006826066384  0.9058622096954068  0.3134440312474922
  0.5535283971740199  0.7727296364216443  0.0728141372331876
  0.1066573707338208  0.8811404241432399  0.8706751631699774
  0.2134203503803960  0.7730119102951392  0.6266209611778777
  0.7804002839995405  0.8855914228462112  0.3853877174140692
  0.8947252872953371  0.7817926310677592  0.1301113812297459
  0.4506413799080562  0.8915941221097228  0.8241069722075878
  0.5477826730653916  0.7743752135057278  0.5765548154428899
 
             NaN             NaN             NaN
             NaN             NaN             NaN
             NaN             NaN             NaN
             NaN             NaN             NaN
             NaN             NaN             NaN
             NaN             NaN             NaN
             NaN             NaN             NaN
             NaN             NaN             NaN
             NaN             NaN             NaN
             NaN             NaN             NaN
             NaN             NaN             NaN
             NaN             NaN             NaN
             NaN             NaN             NaN
             NaN             NaN             NaN
             NaN             NaN             NaN
             NaN             NaN             NaN
             NaN             NaN             NaN
             NaN             NaN             NaN
             NaN             NaN             NaN
             NaN             NaN             NaN
             NaN             NaN             NaN
             NaN             NaN             NaN
             NaN             NaN             NaN
             NaN             NaN             NaN
             NaN             NaN             NaN
             NaN             NaN             NaN
             NaN             NaN             NaN
             NaN             NaN             NaN
             NaN             NaN             NaN
             NaN             NaN             NaN
             NaN             NaN             NaN
             NaN             NaN             NaN
             NaN             NaN             NaN
             NaN             NaN             NaN
             NaN             NaN             NaN
             NaN             NaN             NaN
             NaN             NaN             NaN
             NaN             NaN             NaN
             NaN             NaN             NaN
             NaN             NaN             NaN
             NaN             NaN             NaN
             NaN             NaN             NaN
             NaN             NaN             NaN
             NaN             NaN             NaN
             NaN             NaN             NaN
             NaN             NaN             NaN
             NaN             NaN             NaN
             NaN             NaN             NaN
             NaN             NaN             NaN
             NaN             NaN             NaN
             NaN             NaN             NaN
             NaN             NaN             NaN
             NaN             NaN             NaN
             NaN             NaN             NaN
             NaN             NaN             NaN
             NaN             NaN             NaN
             NaN             NaN             NaN
             NaN             NaN             NaN
             NaN             NaN             NaN
             NaN             NaN             NaN
             NaN             NaN             NaN
             NaN             NaN             NaN
             NaN             NaN             NaN
             NaN             NaN             NaN
             NaN             NaN             NaN
             NaN             NaN             NaN
             NaN             NaN             NaN
             NaN             NaN             NaN
             NaN             NaN             NaN
             NaN             NaN             NaN
             NaN             NaN             NaN
             NaN             NaN             NaN
