Al   Hf   N                             
   1.00000000000000     
     9.5217142303037967    0.0148048088614368    0.0192667142782545
    -4.7406551062805411    8.2449991925205204    0.0159536519712305
    -0.0504059974019046    0.0120445194648746   10.1551314651463596
   Al   Hf   N 
    34     2    36
Direct
  0.2294686622306034  0.1237604722644497  0.3972298976166117
  0.8822634881648915  0.1085817365892531  0.8839375208052073
  0.7775983433259095  0.2226185800909635  0.6358790312812536
  0.5632157868716637  0.1177563760233306  0.3858248172511259
  0.4452867704508060  0.2251991961279696  0.1373210463127926
  0.2285313909551684  0.1130016718018136  0.8748132588617706
  0.1093712269386006  0.2219025344564739  0.6398603150377944
  0.8853000623603587  0.1084768370312515  0.3904302406640033
  0.7724205383198732  0.2213462013070582  0.1348505885976655
  0.5556498485016292  0.1124494017443273  0.8855931125223391
  0.4491661102933195  0.2258354654091533  0.6364133618737987
  0.2256597702567113  0.4472853332724904  0.3926647501536362
  0.1046030489336786  0.5516920029678682  0.1285106429162931
  0.8862554419551525  0.4423437212405980  0.8828804856073387
  0.7749135820525570  0.5520406714415657  0.6346953335777265
  0.5559690556175102  0.4451608823599997  0.3841072245428606
  0.4434098513814195  0.5525743032037559  0.1354466006468331
  0.2248914247056049  0.4517597526577276  0.8759305092013322
  0.1059589314425209  0.5464597854734786  0.6295744678472083
  0.8813644769045329  0.4353156883459867  0.3824097930059672
  0.7777562681035288  0.5559035577208882  0.1312559465311962
  0.5553762747112096  0.4441054168980219  0.8849983423650165
  0.4471550553589828  0.5568799589517690  0.6340722159357974
  0.1127655089268977  0.8756630855325662  0.0604921878682107
  0.8803765860626578  0.7723156835566233  0.8694431685264834
  0.7750331412111570  0.8890825573763794  0.6386102176904841
  0.5574979404315761  0.7776794730404254  0.3872753979657165
  0.4536879228839563  0.8951245088413847  0.1315307527813920
  0.2194617384452305  0.7782832587884706  0.8112647603735478
  0.1040727410764104  0.8914348069493342  0.5790328213522417
  0.8799434169508964  0.7755381283806319  0.3770716607158816
  0.7719808956832583  0.8841948384073824  0.1336234187895651
  0.5527082575666621  0.7758317310099020  0.8864830192979843
  0.4555531444279026  0.8945898016116279  0.6330821325273689
  0.1234484385254598  0.2270688408327602  0.1331400049117046
  0.2285270199033836  0.7695610329601971  0.3588450835059731
  0.1091475316012120  0.2209241095515641  0.3450281562281340
  0.2359781417786163  0.1013502428458195  0.0638812899944311
  0.7760956286112123  0.2222294604209305  0.8241031374225900
  0.8873678278525351  0.1104182388851669  0.5804716796416300
  0.4458881671445926  0.2221775349339109  0.3294245650213312
  0.5556310950008599  0.1148484125816077  0.0736409030274915
  0.1090213875643386  0.2217443851994281  0.8326973140483952
  0.2282021648757503  0.1203569417335227  0.5890681138412001
  0.7774122169419593  0.2203375244771731  0.3247510223651272
  0.8711203807605180  0.1030851557224564  0.0724725060859712
  0.4485813989083772  0.2247035863437933  0.8234816521292709
  0.5578783047699248  0.1135894928900426  0.5752254909109202
  0.0893740687074821  0.5164844508088675  0.3150713101122036
  0.2310805841002838  0.4687814850501866  0.0603647771114983
  0.7738257420909839  0.5496786043446729  0.8234553451932953
  0.8868113367261515  0.4428832444099584  0.5718997417715622
  0.4464178035357081  0.5570387606584265  0.3266198963128226
  0.5582860583652031  0.4460583805729824  0.0732513803363795
  0.1041906995266949  0.5501317752641782  0.8185527840268831
  0.2232122986479284  0.4423112851336801  0.5818311464213812
  0.7776016343423978  0.5540094678854884  0.3233594509287785
  0.8856786012943595  0.4425560380712700  0.0710367593173589
  0.4465321738956697  0.5566868524953806  0.8225354899864986
  0.5560475819981338  0.4447886250099204  0.5737044107651307
  0.1015413542117703  0.8999276749394152  0.3866266921465894
  0.2234629014230493  0.7780296383785108  0.1268518473054423
  0.7733117283992055  0.8892939618259811  0.8266519562274102
  0.8789988587113768  0.7730505850001759  0.5912649280831913
  0.4791563324983620  0.9097384913272163  0.3195349780117296
  0.5538992602722033  0.7748783977643527  0.0744125742099370
  0.1090895331842627  0.8824047184727056  0.8626429151879715
  0.2221669014077257  0.7805905853007064  0.6080012916377665
  0.7770497282597063  0.8897449309955716  0.3247130989428065
  0.8852398650277443  0.7763151424015451  0.0766718809161552
  0.4480083723584667  0.8916662783057883  0.8241211038873635
  0.5578754856815915  0.7788379061730046  0.5765763824939510
 
             NaN             NaN             NaN
             NaN             NaN             NaN
             NaN             NaN             NaN
             NaN             NaN             NaN
             NaN             NaN             NaN
             NaN             NaN             NaN
             NaN             NaN             NaN
             NaN             NaN             NaN
             NaN             NaN             NaN
             NaN             NaN             NaN
             NaN             NaN             NaN
             NaN             NaN             NaN
             NaN             NaN             NaN
             NaN             NaN             NaN
             NaN             NaN             NaN
             NaN             NaN             NaN
             NaN             NaN             NaN
             NaN             NaN             NaN
             NaN             NaN             NaN
             NaN             NaN             NaN
             NaN             NaN             NaN
             NaN             NaN             NaN
             NaN             NaN             NaN
             NaN             NaN             NaN
             NaN             NaN             NaN
             NaN             NaN             NaN
             NaN             NaN             NaN
             NaN             NaN             NaN
             NaN             NaN             NaN
             NaN             NaN             NaN
             NaN             NaN             NaN
             NaN             NaN             NaN
             NaN             NaN             NaN
             NaN             NaN             NaN
             NaN             NaN             NaN
             NaN             NaN             NaN
             NaN             NaN             NaN
             NaN             NaN             NaN
             NaN             NaN             NaN
             NaN             NaN             NaN
             NaN             NaN             NaN
             NaN             NaN             NaN
             NaN             NaN             NaN
             NaN             NaN             NaN
             NaN             NaN             NaN
             NaN             NaN             NaN
             NaN             NaN             NaN
             NaN             NaN             NaN
             NaN             NaN             NaN
             NaN             NaN             NaN
             NaN             NaN             NaN
             NaN             NaN             NaN
             NaN             NaN             NaN
             NaN             NaN             NaN
             NaN             NaN             NaN
             NaN             NaN             NaN
             NaN             NaN             NaN
             NaN             NaN             NaN
             NaN             NaN             NaN
             NaN             NaN             NaN
             NaN             NaN             NaN
             NaN             NaN             NaN
             NaN             NaN             NaN
             NaN             NaN             NaN
             NaN             NaN             NaN
             NaN             NaN             NaN
             NaN             NaN             NaN
             NaN             NaN             NaN
             NaN             NaN             NaN
             NaN             NaN             NaN
             NaN             NaN             NaN
             NaN             NaN             NaN
