Al   Hf   N                             
   1.00000000000000     
     9.4954207299482043    0.0110208939267656    0.0048402728491490
    -4.7564568240067890    8.2175579324455796    0.0021334768984016
    -0.1131481133264034   -0.0681493427407375   10.4090506369269029
   Al   Hf   N 
    34     2    36
Direct
  0.2206259936768333  0.1204684863678409  0.4016281444445156
  0.8837415460305280  0.1081578533719068  0.8210432905554086
  0.7824089694798957  0.2244722236963028  0.5704782731822107
  0.5515639657688425  0.1082693136299184  0.3903053582235430
  0.4484280162440228  0.2180986296222898  0.1409935194103653
  0.2297743253737394  0.1125252935661720  0.8801590375893014
  0.1168774847031315  0.2247268446185444  0.6446231165817480
  0.8700114407313748  0.1012929973700238  0.3260708947578337
  0.7827437772784762  0.2247494853081875  0.0692435393463242
  0.5516410176217477  0.1078861406927558  0.8887207308215324
  0.4471349952034416  0.2210798102281117  0.6371812843718914
  0.2206260255841599  0.4327309423040973  0.4016274305993619
  0.1118234908448912  0.5664716484334278  0.0584221179621736
  0.8851401241920058  0.4418408556046529  0.8186909857999538
  0.7762319549773622  0.5544043516244699  0.5667913990287019
  0.5535566287002993  0.4430650794790338  0.3463063893484915
  0.4484270991780761  0.5629045928954639  0.1409931147290564
  0.2297741955043264  0.4498218343042879  0.8801594180320933
  0.1018820777421325  0.5492695170444222  0.5791806378565880
  0.8849402086813996  0.4395418082124820  0.3178139423474846
  0.7800604397584507  0.5563188315672676  0.0724536849043176
  0.5583937156956083  0.4454832231034302  0.8475454283146462
  0.4471343510868948  0.5586306337278302  0.6371811813947872
  0.1118235809611150  0.8779271506588557  0.0584216276255418
  0.8851392765813486  0.7758733776828919  0.8186909458069564
  0.7824083403779127  0.8905132644989351  0.5704781947529014
  0.5515631027336951  0.7758682373809691  0.3903054972556248
  0.4638229143597385  0.8981994271484268  0.1329886577540194
  0.2164037804702232  0.7744886037698180  0.8142251577658612
  0.1018816903071738  0.8851886588634912  0.5791811849463642
  0.8849404182988039  0.7779732271557762  0.3178138095889054
  0.7827428902564293  0.8905704860408008  0.0692437237493522
  0.5516401889068305  0.7763278836355525  0.8887207719709380
  0.4497938213100880  0.8911849058685775  0.6378836341600476
  0.1244290208312506  0.2285023233427097  0.1270523335887219
  0.2097105503869230  0.7711412597243594  0.3320658951934874
  0.1031873068829867  0.2178821416606667  0.3438356734489574
  0.2408149241061821  0.1044562711848727  0.0636845144882017
  0.7859006646074249  0.2255958620240790  0.8818535350946632
  0.8826271476750236  0.1076003295587356  0.6346441658775248
  0.4355477619845445  0.2116347050597298  0.3295847601360578
  0.5537747122204379  0.1131560140406194  0.0727913470925472
  0.1202223282513373  0.2263992983724776  0.8321475423000990
  0.2250206347583656  0.1166593493046832  0.5881668967049904
  0.7804275879810305  0.2274749425338172  0.3854242089815187
  0.8548009460050423  0.0936868527005785  0.1452084838336489
  0.4483882161088815  0.2199880196841661  0.8230983015153370
  0.5480272616617086  0.1055225057204439  0.5765713746933230
  0.0925907577560068  0.5309444679759068  0.3951591734092688
  0.2408147883867358  0.4689298818901122  0.0636853077505677
  0.7806000489213005  0.5565883533227662  0.8841754163089206
  0.8821887268457260  0.4412996664103304  0.6349955188829313
  0.4355470900643681  0.5564897424963036  0.3295845661979513
  0.5601713423319055  0.4463720989838080  0.1185389269092312
  0.1064355983940004  0.5582042424842939  0.8710868447151014
  0.2250206681807327  0.4409342545280452  0.5881665517330177
  0.7801984620079523  0.5563879069324358  0.3789769563105807
  0.8947504452726065  0.4456825713974624  0.1299226495239552
  0.4483875884976456  0.5609761969988156  0.8230984754286226
  0.5541368398514237  0.4433548965417700  0.5987177839805398
  0.0925916347378077  0.8942237076022295  0.3951602646030921
  0.2306566167529240  0.7816140152759701  0.1154696090659968
  0.7858998965903083  0.8928813571032634  0.8818535380533419
  0.8821879601947415  0.7734625410022957  0.6349955536626766
  0.4792337505998816  0.9059058725493117  0.3136114830962669
  0.5537740491199727  0.7731913907855557  0.0727915936893453
  0.1064353540774903  0.8808076458727356  0.8710867397952100
  0.2135655269659296  0.7730692327807489  0.6267948556672920
  0.7804272410246043  0.8855296374166031  0.3854243137727309
  0.8947500530899006  0.7816415476751999  0.1299224475601264
  0.4506489219547163  0.8916128522197937  0.8242507666083227
  0.5480267020911711  0.7750776830352422  0.5765713711809042
 
             NaN             NaN             NaN
             NaN             NaN             NaN
             NaN             NaN             NaN
             NaN             NaN             NaN
             NaN             NaN             NaN
             NaN             NaN             NaN
             NaN             NaN             NaN
             NaN             NaN             NaN
             NaN             NaN             NaN
             NaN             NaN             NaN
             NaN             NaN             NaN
             NaN             NaN             NaN
             NaN             NaN             NaN
             NaN             NaN             NaN
             NaN             NaN             NaN
             NaN             NaN             NaN
             NaN             NaN             NaN
             NaN             NaN             NaN
             NaN             NaN             NaN
             NaN             NaN             NaN
             NaN             NaN             NaN
             NaN             NaN             NaN
             NaN             NaN             NaN
             NaN             NaN             NaN
             NaN             NaN             NaN
             NaN             NaN             NaN
             NaN             NaN             NaN
             NaN             NaN             NaN
             NaN             NaN             NaN
             NaN             NaN             NaN
             NaN             NaN             NaN
             NaN             NaN             NaN
             NaN             NaN             NaN
             NaN             NaN             NaN
             NaN             NaN             NaN
             NaN             NaN             NaN
             NaN             NaN             NaN
             NaN             NaN             NaN
             NaN             NaN             NaN
             NaN             NaN             NaN
             NaN             NaN             NaN
             NaN             NaN             NaN
             NaN             NaN             NaN
             NaN             NaN             NaN
             NaN             NaN             NaN
             NaN             NaN             NaN
             NaN             NaN             NaN
             NaN             NaN             NaN
             NaN             NaN             NaN
             NaN             NaN             NaN
             NaN             NaN             NaN
             NaN             NaN             NaN
             NaN             NaN             NaN
             NaN             NaN             NaN
             NaN             NaN             NaN
             NaN             NaN             NaN
             NaN             NaN             NaN
             NaN             NaN             NaN
             NaN             NaN             NaN
             NaN             NaN             NaN
             NaN             NaN             NaN
             NaN             NaN             NaN
             NaN             NaN             NaN
             NaN             NaN             NaN
             NaN             NaN             NaN
             NaN             NaN             NaN
             NaN             NaN             NaN
             NaN             NaN             NaN
             NaN             NaN             NaN
             NaN             NaN             NaN
             NaN             NaN             NaN
             NaN             NaN             NaN
