Al   Hf   N                             
   1.00000000000000     
     9.5251631504157892    0.0088947219020131    0.0032775067161688
    -4.7583148805066262    8.2460494116845791    0.0022523301420881
    -0.0237510985561951    0.0339391642456565   10.1007765473310869
   Al   Hf   N 
    34     2    36
Direct
  0.2218745372878408  0.1188172952722549  0.3525546861413368
  0.8793590638479063  0.1039777845852843  0.8170515792955723
  0.7799023197616207  0.2238401710775036  0.5628965810783728
  0.5600613780441069  0.1157082026535506  0.3149993430296108
  0.4517223382811980  0.2223674212593273  0.0609983037369012
  0.2294537470916196  0.1073650577847349  0.8261112947634394
  0.1121556019977610  0.2221831644955488  0.6300145617422633
  0.8794062092118802  0.1066338026569877  0.3156693302150957
  0.7702996186888772  0.2198876147584898  0.0644108432083441
  0.5594216011915204  0.1113784175410667  0.8121600125987009
  0.4514588327168237  0.2254435652066467  0.5711037415051463
  0.2260370331035810  0.4479186116357118  0.3188764740291344
  0.1097378783482229  0.5603711856976566  0.0597547098324264
  0.8867319937058997  0.4423011320573894  0.8165703758496439
  0.7770130243284953  0.5545065733140289  0.5654846821778822
  0.5537507242630446  0.4436779616890580  0.3165263012991446
  0.4475281835144807  0.5616656793366976  0.0658619773231534
  0.2293397494400993  0.4500604525385511  0.8211396011648543
  0.1082945699112046  0.5474219338078948  0.5741844763576094
  0.8894733296489800  0.4485227288851010  0.3132679798020838
  0.7762775787960521  0.5549032653879249  0.0658736824621397
  0.5582198138973555  0.4461182907592163  0.8154434129413967
  0.4468425942552183  0.5562033392556601  0.5660541662540669
  0.1065799563033923  0.8797143864675921  0.0532001536666220
  0.8839771370155631  0.7734637361200363  0.8147912826495298
  0.7782038956196223  0.8870231420818863  0.5626345506899992
  0.5606820494932078  0.7786876859456489  0.3142074232074419
  0.4486834742739697  0.8916866741828923  0.0603725654223807
  0.2246859846140060  0.7753033048517782  0.8119656770344424
  0.1066637819497489  0.8885885998607030  0.5795059664496491
  0.8894454096163873  0.7742965634796948  0.3122843248436677
  0.7712915378809704  0.8853682129455891  0.0634900917781940
  0.5566652980972194  0.7770950679406702  0.8130480762833764
  0.4514431533919658  0.8912999772185988  0.5664218867936978
  0.1151704611524069  0.2219966160560979  0.0875509008569159
  0.2073374917297590  0.7722407005100903  0.3185658482103111
  0.1080147848164512  0.2235063632152455  0.3333300520632557
  0.2362002031764615  0.0924193153910709  0.1012356607629485
  0.7775150428529316  0.2209582753428270  0.8742844713499084
  0.8842528128819277  0.1076275944316471  0.6239098653690317
  0.4463344218703215  0.2232562972500179  0.3797412421998314
  0.5546733809599675  0.1109935284051483  0.1247478754125514
  0.1093839225281190  0.2189355349337368  0.8427075779362451
  0.2291016643185539  0.1120557270539454  0.6255970580363647
  0.7777793728202884  0.2260527142342355  0.3742790326568219
  0.8564900875829045  0.0958715443647800  0.1270391940549196
  0.4534127991805386  0.2249206544752798  0.8699897326332255
  0.5594315319293908  0.1115893275935091  0.6238373636143152
  0.1010101635384247  0.5313721850655153  0.3892188175973093
  0.2370199153832274  0.4814488331923323  0.1316860158897753
  0.7775276125957806  0.5540250103247735  0.8756455713823875
  0.8867903387258929  0.4427625419278565  0.6276065073204351
  0.4460340182299499  0.5565394455434924  0.3765488121066116
  0.5531040307447443  0.4430591770952702  0.1249605123712770
  0.1104083439750483  0.5534831430990007  0.8703821249780497
  0.2290423885651592  0.4492098952715423  0.6301161807994602
  0.7723318413512523  0.5525110444921426  0.3761485840658763
  0.8876209976378555  0.4421522925125685  0.1202223626031178
  0.4487923400657679  0.5576543294182850  0.8755768660347010
  0.5572375172425076  0.4459965648852438  0.6262486812801377
  0.0987660474172189  0.9025288969520946  0.3928419048656300
  0.2254908000754854  0.7803315122757236  0.1054386061827586
  0.7753360393984617  0.8854812805439608  0.8734372111005516
  0.8842411442398163  0.7741756876572374  0.6268864723245037
  0.4619757341571503  0.8977804036475463  0.3768443537391180
  0.5553174873209265  0.7785523174478324  0.1240697216744519
  0.1077919811825953  0.8809354582005410  0.8626997156739151
  0.2241712650465296  0.7762254961623661  0.6182954378948423
  0.7783078982035881  0.8855164105058495  0.3737416449181690
  0.8871664632533190  0.7785296303711883  0.1191056191579158
  0.4470627046670773  0.8894884510958880  0.8690902791819191
  0.5574396083211151  0.7770234300947400  0.6239214930107879
 
             NaN             NaN             NaN
             NaN             NaN             NaN
             NaN             NaN             NaN
             NaN             NaN             NaN
             NaN             NaN             NaN
             NaN             NaN             NaN
             NaN             NaN             NaN
             NaN             NaN             NaN
             NaN             NaN             NaN
             NaN             NaN             NaN
             NaN             NaN             NaN
             NaN             NaN             NaN
             NaN             NaN             NaN
             NaN             NaN             NaN
             NaN             NaN             NaN
             NaN             NaN             NaN
             NaN             NaN             NaN
             NaN             NaN             NaN
             NaN             NaN             NaN
             NaN             NaN             NaN
             NaN             NaN             NaN
             NaN             NaN             NaN
             NaN             NaN             NaN
             NaN             NaN             NaN
             NaN             NaN             NaN
             NaN             NaN             NaN
             NaN             NaN             NaN
             NaN             NaN             NaN
             NaN             NaN             NaN
             NaN             NaN             NaN
             NaN             NaN             NaN
             NaN             NaN             NaN
             NaN             NaN             NaN
             NaN             NaN             NaN
             NaN             NaN             NaN
             NaN             NaN             NaN
             NaN             NaN             NaN
             NaN             NaN             NaN
             NaN             NaN             NaN
             NaN             NaN             NaN
             NaN             NaN             NaN
             NaN             NaN             NaN
             NaN             NaN             NaN
             NaN             NaN             NaN
             NaN             NaN             NaN
             NaN             NaN             NaN
             NaN             NaN             NaN
             NaN             NaN             NaN
             NaN             NaN             NaN
             NaN             NaN             NaN
             NaN             NaN             NaN
             NaN             NaN             NaN
             NaN             NaN             NaN
             NaN             NaN             NaN
             NaN             NaN             NaN
             NaN             NaN             NaN
             NaN             NaN             NaN
             NaN             NaN             NaN
             NaN             NaN             NaN
             NaN             NaN             NaN
             NaN             NaN             NaN
             NaN             NaN             NaN
             NaN             NaN             NaN
             NaN             NaN             NaN
             NaN             NaN             NaN
             NaN             NaN             NaN
             NaN             NaN             NaN
             NaN             NaN             NaN
             NaN             NaN             NaN
             NaN             NaN             NaN
             NaN             NaN             NaN
             NaN             NaN             NaN
