Al   Hf   N                             
   1.00000000000000     
     9.5187267169293239    0.0120376917770740    0.0139304112425166
    -4.7380865261172076    8.2418022149196144    0.0108648502538311
    -0.0618278951369015    0.0390881024217011   10.2636448655768433
   Al   Hf   N 
    34     2    36
Direct
  0.2279979577694982  0.1224150945408581  0.3976509631659439
  0.8854457585919122  0.1082139915205946  0.8456346514072434
  0.7758449300901337  0.2246403202255121  0.6362518833179867
  0.5610412264393776  0.1176807246302860  0.3878867318196159
  0.4448611616256769  0.2247954551221654  0.1386023027571840
  0.2289238826507939  0.1105854240606830  0.8785601323099039
  0.1150879324905446  0.2239842992968977  0.6390785837885519
  0.8848815374014923  0.1128889100056455  0.3710310382970698
  0.7715594018908138  0.2224015843375247  0.1373741222733614
  0.5554727700420498  0.1121508333376262  0.8877765271704425
  0.4485430252500510  0.2249849501604563  0.6376612534839396
  0.2248717038564510  0.4476986273244458  0.3934253659119911
  0.1048144919640345  0.5517250159797313  0.1305382690105145
  0.8862027198009147  0.4429375187030871  0.8851212374727006
  0.7734454311668548  0.5488548655787413  0.6353904174436666
  0.5561080233412954  0.4459039670520885  0.3852726719801827
  0.4437247455241241  0.5535253536498375  0.1364324575277451
  0.2243063237077003  0.4508476858611062  0.8780851880493419
  0.1063854065423853  0.5466445812440478  0.6309098516157136
  0.8805855612754804  0.4388049437952594  0.3846047781775003
  0.7750272185080597  0.5512446545128247  0.1342594140470333
  0.5559452309408828  0.4437742724924544  0.8859329552127015
  0.4463022981114481  0.5561295016534747  0.6364224155592774
  0.1105313257419062  0.8733616180282625  0.0625724555020798
  0.8863727810703734  0.7775091382085938  0.8174207449299697
  0.7812054624078733  0.8874906288599043  0.5711219318132320
  0.5491313952015717  0.7729223254691209  0.3901306934053314
  0.4561626436799651  0.8956743926215076  0.1338061093900018
  0.2179827180303460  0.7776923417894526  0.8122645561956171
  0.1019419295017965  0.8891654430685404  0.5748936511280524
  0.8883680407926164  0.7865627563647640  0.3158523807431938
  0.7776321848327111  0.8859790319268367  0.0652165591079811
  0.5456896254938179  0.7709157562991049  0.8856803884256683
  0.4554476263294964  0.8946369357333638  0.6358145721977034
  0.1240250546247470  0.2268745726340139  0.1326504130965244
  0.2281304772963106  0.7704680185458772  0.3578309975098614
  0.1100633946824100  0.2222046269715550  0.3453814643987483
  0.2363177249078261  0.1004172895065945  0.0642999352657247
  0.7740478177734933  0.2235500056082645  0.8244091722125100
  0.8894024958186190  0.1125517563529748  0.6039186905045442
  0.4439605208309867  0.2215348606230299  0.3297088105167046
  0.5555842291081016  0.1152576002364446  0.0740933837216186
  0.1148881619346877  0.2228812672821736  0.8314354217748617
  0.2290913895937648  0.1191565270179206  0.5868096040855588
  0.7740484154002749  0.2245929509302915  0.3272465500671900
  0.8724220688304846  0.1048286806209438  0.0977930485279918
  0.4475911176006494  0.2231664541044258  0.8236237485818418
  0.5570834619587475  0.1131638770667985  0.5755975771341977
  0.0883124264960553  0.5171245365405737  0.3161893588575054
  0.2303856787972016  0.4686697975184607  0.0607892630732407
  0.7721242868637819  0.5463252471687019  0.8244403423012364
  0.8874725529714619  0.4447479588893963  0.5721172966598808
  0.4447812932612238  0.5558389353273948  0.3259667745768099
  0.5583336845164483  0.4469655704335964  0.0728657533451101
  0.1038369132757379  0.5486366294656305  0.8184716845236041
  0.2237890287205792  0.4431882187206302  0.5808517830819241
  0.7744597302544454  0.5516996238807547  0.3244936517584452
  0.8862218084350054  0.4443396460137133  0.0715846109667510
  0.4448427233254372  0.5541093359249637  0.8226850954071521
  0.5561202145244554  0.4454779966357253  0.5739516946756206
  0.0949482638322891  0.8955633302242254  0.3896349043390975
  0.2244521589913722  0.7785839200978077  0.1301592105715997
  0.7778692265099265  0.8847266093663669  0.8744029320896141
  0.8879637953253865  0.7801232294934395  0.6317230233243244
  0.4803812132573585  0.9107600459041334  0.3196178470450416
  0.5488782526355961  0.7717815382831570  0.0737827902070322
  0.1051366256983249  0.8771277836576146  0.8718181117348035
  0.2214218227049408  0.7810792368606825  0.6104324618693787
  0.7787035927942938  0.8868933221713586  0.3816925115700826
  0.8945702159841140  0.7852426120956524  0.1265657754898449
  0.4474843064170967  0.8918705503628324  0.8244486603711091
  0.5518201117572350  0.7750413717720054  0.5804667245326794
 
             NaN             NaN             NaN
             NaN             NaN             NaN
             NaN             NaN             NaN
             NaN             NaN             NaN
             NaN             NaN             NaN
             NaN             NaN             NaN
             NaN             NaN             NaN
             NaN             NaN             NaN
             NaN             NaN             NaN
             NaN             NaN             NaN
             NaN             NaN             NaN
             NaN             NaN             NaN
             NaN             NaN             NaN
             NaN             NaN             NaN
             NaN             NaN             NaN
             NaN             NaN             NaN
             NaN             NaN             NaN
             NaN             NaN             NaN
             NaN             NaN             NaN
             NaN             NaN             NaN
             NaN             NaN             NaN
             NaN             NaN             NaN
             NaN             NaN             NaN
             NaN             NaN             NaN
             NaN             NaN             NaN
             NaN             NaN             NaN
             NaN             NaN             NaN
             NaN             NaN             NaN
             NaN             NaN             NaN
             NaN             NaN             NaN
             NaN             NaN             NaN
             NaN             NaN             NaN
             NaN             NaN             NaN
             NaN             NaN             NaN
             NaN             NaN             NaN
             NaN             NaN             NaN
             NaN             NaN             NaN
             NaN             NaN             NaN
             NaN             NaN             NaN
             NaN             NaN             NaN
             NaN             NaN             NaN
             NaN             NaN             NaN
             NaN             NaN             NaN
             NaN             NaN             NaN
             NaN             NaN             NaN
             NaN             NaN             NaN
             NaN             NaN             NaN
             NaN             NaN             NaN
             NaN             NaN             NaN
             NaN             NaN             NaN
             NaN             NaN             NaN
             NaN             NaN             NaN
             NaN             NaN             NaN
             NaN             NaN             NaN
             NaN             NaN             NaN
             NaN             NaN             NaN
             NaN             NaN             NaN
             NaN             NaN             NaN
             NaN             NaN             NaN
             NaN             NaN             NaN
             NaN             NaN             NaN
             NaN             NaN             NaN
             NaN             NaN             NaN
             NaN             NaN             NaN
             NaN             NaN             NaN
             NaN             NaN             NaN
             NaN             NaN             NaN
             NaN             NaN             NaN
             NaN             NaN             NaN
             NaN             NaN             NaN
             NaN             NaN             NaN
             NaN             NaN             NaN
