Al   Hf   N                             
   1.00000000000000     
     9.5245820732394382    0.0073483923238530    0.0245196869189187
    -4.7706969797298182    8.2330031661375109   -0.0104321274288065
    -0.0743035049805507   -0.0306160252533962   10.2934212357260275
   Al   Hf   N 
    34     2    36
Direct
  0.2242874928520461  0.1225107154426112  0.4023344851830218
  0.8852313132598540  0.1081829999704661  0.8258609892402387
  0.7793967080963337  0.2221891638471114  0.5723351726243847
  0.5619471270150097  0.1088571931800693  0.3245756922115858
  0.4405258743748456  0.2163656098373693  0.1426386333622997
  0.2331813528845221  0.1131179512124252  0.8831310131694451
  0.1182253221043058  0.2251713197983509  0.6487447045669619
  0.8739084701634778  0.1015902605157116  0.3300855825713921
  0.7722272378709930  0.2170436402502722  0.0733947586359424
  0.5620449704000205  0.1071148277715149  0.8220275006018652
  0.4457107811051312  0.2214431737264345  0.6412491187075214
  0.2157186251555354  0.4300021869383680  0.4063805921515774
  0.1019044341893162  0.5611965855645505  0.0582499785830876
  0.8837225140579279  0.4417476876496088  0.8214585811353672
  0.7769179599230422  0.5542353198796911  0.5706531443259134
  0.5531835365062421  0.4479968939074839  0.3245077290211206
  0.4581247332279855  0.5655106144355533  0.0678696408094008
  0.2272838178879045  0.4502551738011190  0.8783809970882277
  0.1041607137264626  0.5516041956091131  0.5862974409979772
  0.8859186589243038  0.4448022722530771  0.3208574237270074
  0.7762859980263876  0.5534653379055156  0.0724602839214270
  0.5630204040540641  0.4517073310331035  0.8218374236681044
  0.4557795777626693  0.5616171248514452  0.5778625280754658
  0.1034269010564405  0.8758705840901987  0.0585084614726261
  0.8860393399387342  0.7754893620396557  0.8214261331922810
  0.7801004632172408  0.8892209746884183  0.5727390486834346
  0.5579891670143352  0.7746896609923919  0.3227989669550064
  0.4475274613512939  0.8891972936373510  0.0668707703861471
  0.2246019434973496  0.7794902365829102  0.8161385431909243
  0.1051595384580655  0.8867575276183005  0.5821303088144025
  0.8868122053401610  0.7734111722161092  0.3205265191021317
  0.7730025937753036  0.8868088643920222  0.0740220651189940
  0.5605417922739035  0.7805481660600337  0.8202261368442495
  0.4514949583035126  0.8906966414830008  0.5737500756691561
  0.1231448496765654  0.2312269827564687  0.1275151657206622
  0.2077042783102826  0.7695387980021984  0.3238017906353644
  0.1033121365210652  0.2177942808177984  0.3480521790933045
  0.2370294812723772  0.1007351776083306  0.0674463075732107
  0.7796781567928381  0.2213936675051008  0.8853732509605482
  0.8864796133486800  0.1090555380630060  0.6357185623704554
  0.4365562332167891  0.2153545438446293  0.3355772963200549
  0.5559592423870027  0.1052257999962636  0.1336605278643459
  0.1194958349804340  0.2246414713507648  0.8389148560096187
  0.2279304313199951  0.1186163930449435  0.5903866157485793
  0.7766103164521997  0.2244995694249434  0.3863230132010060
  0.8570328359886211  0.0936221816728495  0.1459928724189771
  0.4484230794470765  0.2220311425429819  0.8313617274444542
  0.5615716288926412  0.1076974041370095  0.6324149684069208
  0.0942970216451606  0.5329424815409233  0.3987124098115173
  0.2338684404517327  0.4716610274352693  0.0697365032244356
  0.7792398237508996  0.5555456091226524  0.8850155686266977
  0.8830473511139468  0.4414377595631984  0.6359506608568947
  0.4453872296079596  0.5561934468530463  0.3876663681134123
  0.5578380297033854  0.4494001631230456  0.1331622317834228
  0.1057453261143141  0.5590253151785199  0.8684422930192529
  0.2261530476844956  0.4436399193206250  0.5995825372109238
  0.7720143336326273  0.5517088295489041  0.3838470840204155
  0.8870991935939380  0.4407181595524841  0.1296968758104245
  0.4581169647677098  0.5629749966967241  0.8780126264551551
  0.5624195358522676  0.4513154157858489  0.6330939903090708
  0.0964967137076257  0.8954545268959102  0.3954403940575346
  0.2235754424738855  0.7790319751677212  0.1137197721053639
  0.7797828076935071  0.8897811602761565  0.8852287848875124
  0.8855260500264457  0.7750524235110769  0.6353641897888823
  0.4597871550819911  0.8930794203375645  0.3871254167331838
  0.5540926255688274  0.7768011363015502  0.1342641040000874
  0.1071887562594647  0.8815048203730634  0.8699113998148352
  0.2253411609555878  0.7800206287058293  0.6270819874771545
  0.7750180559999607  0.8813876495732949  0.3860751254194022
  0.8885067823634698  0.7786380651791078  0.1294104580231580
  0.4463507740294472  0.8873432681066786  0.8791411157103642
  0.5599680154030927  0.7805073916200589  0.6345295747866986
 
             NaN             NaN             NaN
             NaN             NaN             NaN
             NaN             NaN             NaN
             NaN             NaN             NaN
             NaN             NaN             NaN
             NaN             NaN             NaN
             NaN             NaN             NaN
             NaN             NaN             NaN
             NaN             NaN             NaN
             NaN             NaN             NaN
             NaN             NaN             NaN
             NaN             NaN             NaN
             NaN             NaN             NaN
             NaN             NaN             NaN
             NaN             NaN             NaN
             NaN             NaN             NaN
             NaN             NaN             NaN
             NaN             NaN             NaN
             NaN             NaN             NaN
             NaN             NaN             NaN
             NaN             NaN             NaN
             NaN             NaN             NaN
             NaN             NaN             NaN
             NaN             NaN             NaN
             NaN             NaN             NaN
             NaN             NaN             NaN
             NaN             NaN             NaN
             NaN             NaN             NaN
             NaN             NaN             NaN
             NaN             NaN             NaN
             NaN             NaN             NaN
             NaN             NaN             NaN
             NaN             NaN             NaN
             NaN             NaN             NaN
             NaN             NaN             NaN
             NaN             NaN             NaN
             NaN             NaN             NaN
             NaN             NaN             NaN
             NaN             NaN             NaN
             NaN             NaN             NaN
             NaN             NaN             NaN
             NaN             NaN             NaN
             NaN             NaN             NaN
             NaN             NaN             NaN
             NaN             NaN             NaN
             NaN             NaN             NaN
             NaN             NaN             NaN
             NaN             NaN             NaN
             NaN             NaN             NaN
             NaN             NaN             NaN
             NaN             NaN             NaN
             NaN             NaN             NaN
             NaN             NaN             NaN
             NaN             NaN             NaN
             NaN             NaN             NaN
             NaN             NaN             NaN
             NaN             NaN             NaN
             NaN             NaN             NaN
             NaN             NaN             NaN
             NaN             NaN             NaN
             NaN             NaN             NaN
             NaN             NaN             NaN
             NaN             NaN             NaN
             NaN             NaN             NaN
             NaN             NaN             NaN
             NaN             NaN             NaN
             NaN             NaN             NaN
             NaN             NaN             NaN
             NaN             NaN             NaN
             NaN             NaN             NaN
             NaN             NaN             NaN
             NaN             NaN             NaN
