Al   Hf   N                             
   1.00000000000000     
     9.5068302469604316    0.0079934437306977    0.0061311991133612
    -4.7386939377612300    8.2175589648169147    0.0034273708207088
    -0.1407177549481146   -0.0818545588918582   10.4698339117945292
   Al   Hf   N 
    34     2    36
Direct
  0.2213696551430473  0.1207022117235975  0.3992247291449183
  0.8830927973749105  0.1063605833229362  0.8185470979721318
  0.7757425238713656  0.2150511805436217  0.5752355258575558
  0.5474451006642966  0.1062048756634660  0.3902589420827040
  0.4496067546700772  0.2231935783426355  0.1395681598399238
  0.2304322653542630  0.1135185335341643  0.8804338896974754
  0.1163182979873067  0.2232486393862094  0.6433641393931980
  0.8693220566924862  0.1030594744210184  0.3240134556085043
  0.7804931169895672  0.2232404053256692  0.0648956635762139
  0.5482962506792819  0.1065277065026712  0.8862246083942629
  0.4460630635781443  0.2230343141039101  0.6393869655364343
  0.2227689282558868  0.4325956354174222  0.4002315165405306
  0.1205222833134842  0.5721881647555843  0.0504043739661376
  0.8849714630208253  0.4444715654413612  0.8694602903177460
  0.7697953220761681  0.5489566137650111  0.6422901982149067
  0.5529529619736143  0.4435381246813166  0.3879706628416075
  0.4505674353616149  0.5600113755106896  0.1388265307606593
  0.2330136608524494  0.4488077183662353  0.8755347836591554
  0.1095455092148968  0.5531939534339211  0.5825661558842021
  0.8762604272858773  0.4413640587421684  0.3931104254406589
  0.7811138413332116  0.5510126493921700  0.1383210764487993
  0.5578943815746089  0.4452548278010935  0.8909440948324674
  0.4494349237816704  0.5573460158296074  0.6388153288637719
  0.1108924968624897  0.8784547339141771  0.0574789538087213
  0.8884146235266361  0.7837352968861604  0.8176548045806437
  0.7817105196207128  0.8899823382082072  0.5678535910842767
  0.5495076311916877  0.7747723730171643  0.3884427991168541
  0.4655648249213369  0.9001104654457553  0.1313273138421164
  0.2170542799374017  0.7761343442648109  0.8119936088646307
  0.1023667912557935  0.8850561585954679  0.5760817982322636
  0.8865842317612885  0.7857039114925709  0.3170413926991719
  0.7828122886831318  0.8915535053809899  0.0684915779430381
  0.5511084614589253  0.7745665516349624  0.8885057828615570
  0.4486332775370863  0.8897383772817559  0.6378495503646098
  0.1246094988041534  0.2305671577545715  0.1266871612848695
  0.2073655495363730  0.7683374347998613  0.3248222632359625
  0.1025660025779319  0.2174421267708339  0.3420544097571683
  0.2403519738172862  0.1062326825028316  0.0635801617618940
  0.7794957309330014  0.2168835373800144  0.8753645187864979
  0.8824639930943297  0.1053467148978716  0.6343848448968402
  0.4386530541249815  0.2182030369989755  0.3280482620125592
  0.5529625398848115  0.1148652107819310  0.0711227060850207
  0.1190891385260081  0.2246148309202126  0.8298982588226014
  0.2259373969558194  0.1175940714055196  0.5850448962301530
  0.7744334758184583  0.2182856572357225  0.3888749082316059
  0.8549141705092097  0.0965954563829449  0.1438985467629356
  0.4486483709105287  0.2246637334226095  0.8231851710333157
  0.5435853949269336  0.1040277135736148  0.5775916436722598
  0.0989516325793782  0.5339013842912932  0.3948388526538695
  0.2433618706375743  0.4691829477808370  0.0592002170418645
  0.7707548876410731  0.5513213011263798  0.8271221684704383
  0.8817278869156493  0.4427031572533282  0.5961641411171222
  0.4392552575603411  0.5536431079941105  0.3272840871014938
  0.5597663526445311  0.4464667537696512  0.0774984938229756
  0.1128106013820117  0.5586882569350311  0.8612545662893147
  0.2280149053067294  0.4400820779590342  0.5873072726019661
  0.7710067944601270  0.5494799094355142  0.3263202748052033
  0.8946730732622169  0.4527279989299641  0.0735205760428431
  0.4525016549230959  0.5583524640575730  0.8223268198538322
  0.5547137898396804  0.4436142066828683  0.5738997921612867
  0.0932565197896765  0.8926554639890751  0.3935255057770089
  0.2337813836020879  0.7841977155154893  0.1104989295865414
  0.7855038420816179  0.8931521936820558  0.8830661193039410
  0.8864124346834281  0.7818871633342312  0.6340801294347284
  0.4766584881581272  0.9050172539649414  0.3115824249848312
  0.5541498185662215  0.7729887703040585  0.0727239931750423
  0.1066844765307994  0.8807133979418985  0.8723163587689077
  0.2143096018356565  0.7756310779155601  0.6276504896610613
  0.7788125386942242  0.8867846863317387  0.3844717775044709
  0.8978560370138334  0.7882206614093303  0.1306778165533414
  0.4502533602882461  0.8901375763485080  0.8234035566129055
  0.5471084925817707  0.7736338135398407  0.5749960834697351
 
             NaN             NaN             NaN
             NaN             NaN             NaN
             NaN             NaN             NaN
             NaN             NaN             NaN
             NaN             NaN             NaN
             NaN             NaN             NaN
             NaN             NaN             NaN
             NaN             NaN             NaN
             NaN             NaN             NaN
             NaN             NaN             NaN
             NaN             NaN             NaN
             NaN             NaN             NaN
             NaN             NaN             NaN
             NaN             NaN             NaN
             NaN             NaN             NaN
             NaN             NaN             NaN
             NaN             NaN             NaN
             NaN             NaN             NaN
             NaN             NaN             NaN
             NaN             NaN             NaN
             NaN             NaN             NaN
             NaN             NaN             NaN
             NaN             NaN             NaN
             NaN             NaN             NaN
             NaN             NaN             NaN
             NaN             NaN             NaN
             NaN             NaN             NaN
             NaN             NaN             NaN
             NaN             NaN             NaN
             NaN             NaN             NaN
             NaN             NaN             NaN
             NaN             NaN             NaN
             NaN             NaN             NaN
             NaN             NaN             NaN
             NaN             NaN             NaN
             NaN             NaN             NaN
             NaN             NaN             NaN
             NaN             NaN             NaN
             NaN             NaN             NaN
             NaN             NaN             NaN
             NaN             NaN             NaN
             NaN             NaN             NaN
             NaN             NaN             NaN
             NaN             NaN             NaN
             NaN             NaN             NaN
             NaN             NaN             NaN
             NaN             NaN             NaN
             NaN             NaN             NaN
             NaN             NaN             NaN
             NaN             NaN             NaN
             NaN             NaN             NaN
             NaN             NaN             NaN
             NaN             NaN             NaN
             NaN             NaN             NaN
             NaN             NaN             NaN
             NaN             NaN             NaN
             NaN             NaN             NaN
             NaN             NaN             NaN
             NaN             NaN             NaN
             NaN             NaN             NaN
             NaN             NaN             NaN
             NaN             NaN             NaN
             NaN             NaN             NaN
             NaN             NaN             NaN
             NaN             NaN             NaN
             NaN             NaN             NaN
             NaN             NaN             NaN
             NaN             NaN             NaN
             NaN             NaN             NaN
             NaN             NaN             NaN
             NaN             NaN             NaN
             NaN             NaN             NaN
