Al   Hf   N                             
   1.00000000000000     
     9.5268065713125445    0.0083175201278560    0.0211387295570216
    -4.7609067975996604    8.2286375528807234   -0.0081090413231470
    -0.0832640307794035   -0.0211202989420353   10.3349644427883458
   Al   Hf   N 
    34     2    36
Direct
  0.2226781839033743  0.1223956837604376  0.4027649557510511
  0.8853001720765394  0.1080059349292313  0.8238209798929697
  0.7862138308666834  0.2260887320247947  0.5741342235814686
  0.5556236529668154  0.1160875424479404  0.3930540418846225
  0.4443652874195346  0.2111715694945769  0.1427448117594796
  0.2313993443787892  0.1131771465912881  0.8829975503971098
  0.1192059159682193  0.2257367884869823  0.6476497322530368
  0.8717515051703857  0.1013865082590945  0.3289889053707496
  0.7791494951490980  0.2205143640746896  0.0731102457398204
  0.5563922844459115  0.1127527223780732  0.8826825742301133
  0.4467809255316493  0.2182539956817465  0.6432295483822653
  0.2156018463763113  0.4306662581267113  0.4053221942456327
  0.1019255769568272  0.5603658029104127  0.0570778935716318
  0.8851405217253616  0.4426907325329099  0.8200060693568522
  0.7760463837392960  0.5538924543339109  0.5700473674734718
  0.5528928560966979  0.4476238007144698  0.3220311385536964
  0.4584625506484787  0.5636982457280472  0.0671008163927704
  0.2270867692648353  0.4495768605659200  0.8786260060303017
  0.1046713043599825  0.5526662016119561  0.5838861751035391
  0.8864251646668351  0.4458350189547829  0.3199752217115907
  0.7759415978370691  0.5529847911448880  0.0717197724516646
  0.5631490123864356  0.4517459387621016  0.8201803602639526
  0.4556565346405577  0.5600982335481838  0.5762804095958176
  0.1027387066600285  0.8759685019901050  0.0574657722868187
  0.8855360867118948  0.7753428598739299  0.8207555049436682
  0.7796488894848017  0.8888139063695901  0.5713367827270045
  0.5570583663318699  0.7744696940302697  0.3216507216562897
  0.4443201121688732  0.8816984560090542  0.0644293526492354
  0.2234022937632009  0.7785732205850546  0.8151440042050397
  0.1046546557373962  0.8868022806895175  0.5815735437040701
  0.8862669934696569  0.7729295467945080  0.3197530136025840
  0.7731669860906475  0.8872932680176974  0.0730291129783396
  0.5604496882572708  0.7797930001718184  0.8187493410361918
  0.4471233399774042  0.8842637236993660  0.5760718697772033
  0.1250549652854261  0.2310266286550804  0.1299917634694246
  0.2076694922164510  0.7716167261660967  0.3209027854454177
  0.1019675112933689  0.2174566723426039  0.3487180406824368
  0.2374356106732051  0.1011887290966098  0.0674756803596918
  0.7864541664167531  0.2251757082299294  0.8825869340426944
  0.8866796676030876  0.1082287399290428  0.6352220943519480
  0.4358785118368724  0.2118804064059247  0.3321859247735867
  0.5532070009796201  0.1095736542119453  0.0812898719248382
  0.1200738534412276  0.2250538700199584  0.8363657092600846
  0.2285444440834969  0.1190229728179750  0.5897849521192725
  0.7817472545178805  0.2282024371754328  0.3858162053071342
  0.8575656302365916  0.0938061872076986  0.1461996591468520
  0.4475345320856421  0.2195551606455183  0.8282380620037219
  0.5564159759607908  0.1127284315045687  0.5891208019800868
  0.0954772579661944  0.5351686085353086  0.3971115390844370
  0.2339195826666619  0.4704381097921381  0.0689195842739966
  0.7788260091482396  0.5547267437106377  0.8845025971269591
  0.8848371950806674  0.4436211064981851  0.6355801928249244
  0.4453616857173749  0.5549510141807950  0.3866166033704024
  0.5576582269010854  0.4471991603686670  0.1330236046423722
  0.1059313588487983  0.5589321059747114  0.8687554023421861
  0.2260101085297213  0.4440398111372911  0.5973565407482780
  0.7706702917926214  0.5506438228337600  0.3836456648486916
  0.8885456741761478  0.4420881794905506  0.1298544503723064
  0.4581271179160256  0.5618361413189197  0.8779569649764676
  0.5619307944038431  0.4501653612866552  0.6332436525497350
  0.0957982344269578  0.8955225178498530  0.3955713016149083
  0.2226816781417931  0.7781350135310553  0.1124303799116511
  0.7794358718049931  0.8898694580213538  0.8846344333170914
  0.8850881633689623  0.7748972821642861  0.6349485984296260
  0.4557883226668426  0.8872230717284330  0.3867967834352881
  0.5541501384096555  0.7756344846439380  0.1336194854920687
  0.1065913994275630  0.8814458662170567  0.8697602079296830
  0.2234047827188411  0.7791669921433005  0.6278444792125942
  0.7740254135376441  0.8811132136928765  0.3852044129807345
  0.8879622287262096  0.7784168120170510  0.1286622225926298
  0.4432723258998441  0.8816046095613281  0.8750358567297505
  0.5601677913816768  0.7792084670825113  0.6340713392441709
 
             NaN             NaN             NaN
             NaN             NaN             NaN
             NaN             NaN             NaN
             NaN             NaN             NaN
             NaN             NaN             NaN
             NaN             NaN             NaN
             NaN             NaN             NaN
             NaN             NaN             NaN
             NaN             NaN             NaN
             NaN             NaN             NaN
             NaN             NaN             NaN
             NaN             NaN             NaN
             NaN             NaN             NaN
             NaN             NaN             NaN
             NaN             NaN             NaN
             NaN             NaN             NaN
             NaN             NaN             NaN
             NaN             NaN             NaN
             NaN             NaN             NaN
             NaN             NaN             NaN
             NaN             NaN             NaN
             NaN             NaN             NaN
             NaN             NaN             NaN
             NaN             NaN             NaN
             NaN             NaN             NaN
             NaN             NaN             NaN
             NaN             NaN             NaN
             NaN             NaN             NaN
             NaN             NaN             NaN
             NaN             NaN             NaN
             NaN             NaN             NaN
             NaN             NaN             NaN
             NaN             NaN             NaN
             NaN             NaN             NaN
             NaN             NaN             NaN
             NaN             NaN             NaN
             NaN             NaN             NaN
             NaN             NaN             NaN
             NaN             NaN             NaN
             NaN             NaN             NaN
             NaN             NaN             NaN
             NaN             NaN             NaN
             NaN             NaN             NaN
             NaN             NaN             NaN
             NaN             NaN             NaN
             NaN             NaN             NaN
             NaN             NaN             NaN
             NaN             NaN             NaN
             NaN             NaN             NaN
             NaN             NaN             NaN
             NaN             NaN             NaN
             NaN             NaN             NaN
             NaN             NaN             NaN
             NaN             NaN             NaN
             NaN             NaN             NaN
             NaN             NaN             NaN
             NaN             NaN             NaN
             NaN             NaN             NaN
             NaN             NaN             NaN
             NaN             NaN             NaN
             NaN             NaN             NaN
             NaN             NaN             NaN
             NaN             NaN             NaN
             NaN             NaN             NaN
             NaN             NaN             NaN
             NaN             NaN             NaN
             NaN             NaN             NaN
             NaN             NaN             NaN
             NaN             NaN             NaN
             NaN             NaN             NaN
             NaN             NaN             NaN
             NaN             NaN             NaN
