Al   Hf   N                             
   1.00000000000000     
     9.5277972821778469    0.0094834298530469    0.0090045930556816
    -4.7655226984380601    8.2171717632969212    0.0061674948223854
    -0.1395380139261216   -0.0660879687292838   10.4110327441945820
   Al   Hf   N 
    34     2    36
Direct
  0.2233772760923069  0.1209007971162258  0.3991863620238481
  0.8848135338002207  0.1058954091260541  0.8181294536957222
  0.7709566591389164  0.2211750903797060  0.6329774789536202
  0.5544657052598392  0.1098883637439745  0.3889734578928669
  0.4490587822025125  0.2230266838580305  0.1397321103493812
  0.2310472125898418  0.1125624965367936  0.8790743709061926
  0.1170866510956764  0.2233280689681760  0.6418446495606668
  0.8743071025364149  0.1022728432333000  0.3259936854915197
  0.7728775124839046  0.2273670516599645  0.1345082483230153
  0.5552210505530846  0.1109492870535295  0.8861028788321804
  0.4466572200723124  0.2236910797789815  0.6387654079457004
  0.2241798662696881  0.4334017877603443  0.3988502666210972
  0.1204390339691646  0.5703603020187468  0.0518508059024948
  0.8791527150680772  0.4397625503299862  0.8814600550931913
  0.7704080809135758  0.5495931756409511  0.6416324419232170
  0.5542924154243922  0.4437332844579150  0.3874737808023722
  0.4500907673259760  0.5584519442819047  0.1390403521363922
  0.2316530543182515  0.4492630018392885  0.8749040086512536
  0.1093418985791020  0.5526146392560695  0.5797058692083642
  0.8739693880432962  0.4378892755514245  0.3964122465199117
  0.7803583776925163  0.5515275201945378  0.1382590302444830
  0.5571607369933228  0.4451653575727606  0.8899269373612829
  0.4496289668420397  0.5578419854444823  0.6382834481095662
  0.1106241664728518  0.8771361942497843  0.0566433821697532
  0.8875228561057086  0.7830855510866643  0.8176177677867320
  0.7817736363528218  0.8908271490339391  0.5671954958575930
  0.5494198290697708  0.7747291312388638  0.3877676480761350
  0.4643321042506708  0.8979849007247770  0.1303833164352768
  0.2155681898469530  0.7745706076467977  0.8123084410677447
  0.1016543770853801  0.8849826504127949  0.5765409880376139
  0.8864463894798199  0.7850380619393887  0.3169300042708773
  0.7824545548732517  0.8902035954480549  0.0672667039911450
  0.5499065506581610  0.7746368445521056  0.8877036182524856
  0.4484426251072548  0.8899447338332461  0.6369138518783291
  0.1275806504689668  0.2289892918030794  0.1257711494005635
  0.2071799020144167  0.7689914531373503  0.3256705692326747
  0.1051005808868497  0.2178343523125071  0.3425564790229237
  0.2418838556332337  0.1039388990319083  0.0629442052994065
  0.7721732766297330  0.2219198883553367  0.8263147342177972
  0.8861865645406865  0.1062888602602028  0.6292874010673876
  0.4393350119554111  0.2177505657647292  0.3289046847105215
  0.5585830586472978  0.1168490261090053  0.0712265968295054
  0.1185212743084643  0.2241700094712411  0.8314010944117680
  0.2270577873583674  0.1173255596440964  0.5860396710186088
  0.7709177210042993  0.2266299089913315  0.3381110380221394
  0.8613110685616370  0.0932864176760592  0.1415973681385037
  0.4486902110295219  0.2244920382638044  0.8233944394489651
  0.5497179760477098  0.1073998725573508  0.5754181513303488
  0.0992639742778110  0.5325699244237292  0.3916761343567783
  0.2430110661495956  0.4687309324082704  0.0595377800997809
  0.7714410039949070  0.5509292288303855  0.8278009153137439
  0.8783076818072094  0.4420548534057731  0.5840928809713062
  0.4407580794752907  0.5537650894206656  0.3276610144752766
  0.5598532417242120  0.4461112396896132  0.0771080076080023
  0.1088308901745145  0.5566211884043157  0.8624127005919926
  0.2282223694690165  0.4407146627197976  0.5873395041107115
  0.7723322453017725  0.5505695312380883  0.3262125723574625
  0.8894819441310438  0.4454276818831033  0.0712623568314460
  0.4515421056620095  0.5582749710975942  0.8223165117565712
  0.5549001951685277  0.4442622850218478  0.5743400860092793
  0.0927948167899240  0.8934301383416691  0.3933038899371449
  0.2332073711685759  0.7831758612329147  0.1098216080686031
  0.7842304165866063  0.8932803400171300  0.8814746334520096
  0.8856824529743179  0.7817491267012541  0.6335121272853624
  0.4757106347689186  0.9044002722986481  0.3120971794357525
  0.5540075097078836  0.7721067528223877  0.0727582322959958
  0.1058250452475545  0.8802237520446726  0.8708374773434344
  0.2139422023165149  0.7750976334741896  0.6262828952847109
  0.7782956113861205  0.8860753417878090  0.3836260334218501
  0.8977467409311090  0.7868659152020319  0.1288038678704891
  0.4492649136465640  0.8909294475505233  0.8240527868550064
  0.5474160040636866  0.7744330984184483  0.5753078055926641
 
             NaN             NaN             NaN
             NaN             NaN             NaN
             NaN             NaN             NaN
             NaN             NaN             NaN
             NaN             NaN             NaN
             NaN             NaN             NaN
             NaN             NaN             NaN
             NaN             NaN             NaN
             NaN             NaN             NaN
             NaN             NaN             NaN
             NaN             NaN             NaN
             NaN             NaN             NaN
             NaN             NaN             NaN
             NaN             NaN             NaN
             NaN             NaN             NaN
             NaN             NaN             NaN
             NaN             NaN             NaN
             NaN             NaN             NaN
             NaN             NaN             NaN
             NaN             NaN             NaN
             NaN             NaN             NaN
             NaN             NaN             NaN
             NaN             NaN             NaN
             NaN             NaN             NaN
             NaN             NaN             NaN
             NaN             NaN             NaN
             NaN             NaN             NaN
             NaN             NaN             NaN
             NaN             NaN             NaN
             NaN             NaN             NaN
             NaN             NaN             NaN
             NaN             NaN             NaN
             NaN             NaN             NaN
             NaN             NaN             NaN
             NaN             NaN             NaN
             NaN             NaN             NaN
             NaN             NaN             NaN
             NaN             NaN             NaN
             NaN             NaN             NaN
             NaN             NaN             NaN
             NaN             NaN             NaN
             NaN             NaN             NaN
             NaN             NaN             NaN
             NaN             NaN             NaN
             NaN             NaN             NaN
             NaN             NaN             NaN
             NaN             NaN             NaN
             NaN             NaN             NaN
             NaN             NaN             NaN
             NaN             NaN             NaN
             NaN             NaN             NaN
             NaN             NaN             NaN
             NaN             NaN             NaN
             NaN             NaN             NaN
             NaN             NaN             NaN
             NaN             NaN             NaN
             NaN             NaN             NaN
             NaN             NaN             NaN
             NaN             NaN             NaN
             NaN             NaN             NaN
             NaN             NaN             NaN
             NaN             NaN             NaN
             NaN             NaN             NaN
             NaN             NaN             NaN
             NaN             NaN             NaN
             NaN             NaN             NaN
             NaN             NaN             NaN
             NaN             NaN             NaN
             NaN             NaN             NaN
             NaN             NaN             NaN
             NaN             NaN             NaN
             NaN             NaN             NaN
