Al   Hf   N                             
   1.00000000000000     
     9.4890073001062696    0.0067163127686841    0.0036682900199437
    -4.7400472705185548    8.2135125563991824    0.0010786931049860
    -0.1252033598463350   -0.0752600607462945   10.4679761979631216
   Al   Hf   N 
    34     2    36
Direct
  0.2216779208897851  0.1214620751483570  0.3992690744794211
  0.8830038760837228  0.1068892109092744  0.8193395296054328
  0.7799519109621509  0.2212184681316613  0.5718455394300301
  0.5485385372236734  0.1077719803814526  0.3903343535253844
  0.4492205995665883  0.2229199235433219  0.1396195424874793
  0.2307924148618443  0.1140751112581017  0.8802681268062496
  0.1161458926666849  0.2235455272587802  0.6435273035579088
  0.8686998573839207  0.1019424214082768  0.3243793529860060
  0.7822332156532422  0.2257688064767310  0.0661836147911348
  0.5497071358219863  0.1079715914405075  0.8873037125472700
  0.4465530266221613  0.2228403581707906  0.6393855969910359
  0.2217722845687674  0.4328781292094470  0.4010455868357234
  0.1131086691444416  0.5674259922363867  0.0535662022125081
  0.8878434475718986  0.4378077409265604  0.8197032505958377
  0.7689470155998016  0.5505617207805692  0.6410634325450675
  0.5539514280688340  0.4440065218074080  0.3883487847643749
  0.4492827226846781  0.5598690073258081  0.1391852720938524
  0.2322047182350850  0.4493523780113749  0.8775201397499071
  0.1038850731036604  0.5499238509655782  0.5802606371340001
  0.8840824292043497  0.4356215332365672  0.3264742160638779
  0.7773242226489689  0.5542075590017426  0.1372406900862221
  0.5587941381796450  0.4455670855823680  0.8907184224696092
  0.4485815512508471  0.5573191411304751  0.6391290640908451
  0.1117024323713642  0.8788337386847819  0.0573391689335804
  0.8883756492772598  0.7832188714979106  0.8186389778008656
  0.7816246618023865  0.8906081354092680  0.5683351930361690
  0.5496480066959999  0.7747732220804233  0.3886194943612224
  0.4645543403167273  0.8995736394778827  0.1314961214105224
  0.2166947494737038  0.7754310955005407  0.8133181501183341
  0.1028346195481423  0.8854022755506117  0.5763613519560299
  0.8865564766715094  0.7853861891078154  0.3174677243355500
  0.7824449331012963  0.8917954545176078  0.0684010508933619
  0.5508326815982969  0.7744638202544064  0.8885654112549332
  0.4490425268716784  0.8902028776722711  0.6378243086779369
  0.1240919477714685  0.2303292472047865  0.1270866108027388
  0.2080100725033207  0.7688774811064534  0.3274606990368713
  0.1022164730568694  0.2179518074687250  0.3423891327736877
  0.2402336859301432  0.1064170211742486  0.0633522246543017
  0.7838981441350736  0.2225319440555224  0.8802822710551951
  0.8816615954873933  0.1059357690522975  0.6343541453372139
  0.4390031857590326  0.2187358112108859  0.3279467194128222
  0.5529916928154629  0.1147544968653008  0.0714217422697835
  0.1192300630697718  0.2253462321972206  0.8299500550334467
  0.2261820862679096  0.1178975198836587  0.5852295231995174
  0.7777358974567284  0.2243647760292189  0.3882569637968232
  0.8540809361409113  0.0952873745991336  0.1443614229596462
  0.4495189310287127  0.2249801776238958  0.8229797325807527
  0.5454211795796571  0.1050470105006202  0.5768351966950084
  0.0931212281011340  0.5317938312330851  0.3972992696272849
  0.2419967862985488  0.4688232336772030  0.0603498747372365
  0.7718983088020710  0.5524706389311427  0.8301888017649498
  0.8857100296101262  0.4364815861897713  0.6340575836838440
  0.4382362361860571  0.5536870873216126  0.3276799961789149
  0.5584482486344720  0.4459023709546022  0.0767185455388700
  0.1090089808081074  0.5583479762296244  0.8679283472263862
  0.2272682322278366  0.4404329851554933  0.5871824297619944
  0.7688797437049366  0.5517103384291252  0.3262637522550325
  0.8988316131784246  0.4450743213441457  0.1237997752647306
  0.4517054077865085  0.5582674349967380  0.8225309792229570
  0.5548207972402098  0.4434340435787275  0.5740225713558309
  0.0937466249621638  0.8938180175245862  0.3936412199420160
  0.2316033720364585  0.7822672343344585  0.1121678845222066
  0.7854312915825360  0.8936773591071936  0.8829991321788413
  0.8864720587215085  0.7818784245145824  0.6340303769580300
  0.4778839137009780  0.9061104394933722  0.3118992165681690
  0.5535211071167281  0.7725696231348325  0.0727345983773975
  0.1074330606437842  0.8817326672898295  0.8720700683955400
  0.2132082295739267  0.7735671989537458  0.6277014208497239
  0.7790284000030581  0.8870433460878084  0.3850377337532050
  0.8981759826163911  0.7888485842767327  0.1297492874837781
  0.4508675889800683  0.8911137612213351  0.8234631105106862
  0.5468881399598551  0.7733883404015027  0.5751371732471319
 
             NaN             NaN             NaN
             NaN             NaN             NaN
             NaN             NaN             NaN
             NaN             NaN             NaN
             NaN             NaN             NaN
             NaN             NaN             NaN
             NaN             NaN             NaN
             NaN             NaN             NaN
             NaN             NaN             NaN
             NaN             NaN             NaN
             NaN             NaN             NaN
             NaN             NaN             NaN
             NaN             NaN             NaN
             NaN             NaN             NaN
             NaN             NaN             NaN
             NaN             NaN             NaN
             NaN             NaN             NaN
             NaN             NaN             NaN
             NaN             NaN             NaN
             NaN             NaN             NaN
             NaN             NaN             NaN
             NaN             NaN             NaN
             NaN             NaN             NaN
             NaN             NaN             NaN
             NaN             NaN             NaN
             NaN             NaN             NaN
             NaN             NaN             NaN
             NaN             NaN             NaN
             NaN             NaN             NaN
             NaN             NaN             NaN
             NaN             NaN             NaN
             NaN             NaN             NaN
             NaN             NaN             NaN
             NaN             NaN             NaN
             NaN             NaN             NaN
             NaN             NaN             NaN
             NaN             NaN             NaN
             NaN             NaN             NaN
             NaN             NaN             NaN
             NaN             NaN             NaN
             NaN             NaN             NaN
             NaN             NaN             NaN
             NaN             NaN             NaN
             NaN             NaN             NaN
             NaN             NaN             NaN
             NaN             NaN             NaN
             NaN             NaN             NaN
             NaN             NaN             NaN
             NaN             NaN             NaN
             NaN             NaN             NaN
             NaN             NaN             NaN
             NaN             NaN             NaN
             NaN             NaN             NaN
             NaN             NaN             NaN
             NaN             NaN             NaN
             NaN             NaN             NaN
             NaN             NaN             NaN
             NaN             NaN             NaN
             NaN             NaN             NaN
             NaN             NaN             NaN
             NaN             NaN             NaN
             NaN             NaN             NaN
             NaN             NaN             NaN
             NaN             NaN             NaN
             NaN             NaN             NaN
             NaN             NaN             NaN
             NaN             NaN             NaN
             NaN             NaN             NaN
             NaN             NaN             NaN
             NaN             NaN             NaN
             NaN             NaN             NaN
             NaN             NaN             NaN
