Al   Hf   N                             
   1.00000000000000     
     9.5268625052000306   -0.0059467536796871    0.0215196489659270
    -4.7502239339355530    8.2581186425191326   -0.0213457111177258
     0.0874620066283343   -0.0508339344854107   10.2990971149924775
   Al   Hf   N 
    34     2    36
Direct
  0.2208181930589292  0.1042100919529206  0.3194638103029909
  0.1093898375078273  0.2254370853711003  0.1367216270614310
  0.8900357996006999  0.1109779112628758  0.8890486479447376
  0.7805925933537635  0.2204214357534905  0.6381238653489760
  0.5542467474372099  0.1103201905568365  0.3151596801981544
  0.4438349676687841  0.2242880749417414  0.0695442115175984
  0.2236662130882914  0.1089162553994290  0.8203767286896805
  0.1046425592687877  0.2226181659033780  0.6374956563412559
  0.8885215804969387  0.1124927932574414  0.3880686067964518
  0.7801577101354200  0.2208571561923262  0.1237348216661831
  0.5527500482648379  0.1111358612311538  0.8268084401674078
  0.4431834553497174  0.2080072693191576  0.5738014453893010
  0.2080706460659735  0.4428158911166785  0.3826235332837417
  0.1172444376611181  0.5612663896980742  0.1334211112822339
  0.8898782336075904  0.4482639025537065  0.8268085101330277
  0.7930064553885283  0.5578304385985190  0.5738014713493045
  0.4388255107022282  0.5621886454333984  0.1327159209749805
  0.2247738152561198  0.4444215192275641  0.8864598026539164
  0.1153612977755617  0.5617118235420042  0.6408198483838876
  0.8906947601017631  0.4467682937199789  0.3151597656531697
  0.7767256972933158  0.5571790033324786  0.0695442283090205
  0.5626149173645549  0.4383991056717481  0.8238243966417272
  0.2252448777767433  0.7757696285820910  0.3865617668066521
  0.1079087538828680  0.8931051935132370  0.0685459776891442
  0.8920975203070339  0.7773475779514967  0.8203766803056302
  0.7783958341558438  0.8963715480940141  0.6374956388621640
  0.5581981774676409  0.7929434997478857  0.3826235740359226
  0.4397480893675149  0.8837698877997378  0.1334212053111097
  0.2255293125733749  0.7754846861248832  0.8899829935533742
  0.1080334216875108  0.8929805533828841  0.5689218283189754
  0.8968043150723132  0.7801963489209018  0.3194638615094330
  0.7755768840501586  0.8916242025706065  0.1367216754961622
  0.5565922592227640  0.7762399505583710  0.8864597894208553
  0.4393021796447558  0.8856524160670723  0.6408199438705362
  0.5509229136618278  0.4500914270545518  0.3523047468043137
  0.4507971168124965  0.5502166943686586  0.6040303418043732
  0.1072210669481430  0.2248521029674236  0.3247986390530113
  0.2255303907911565  0.1088817274585999  0.1307858088067972
  0.7801541226167931  0.2208598028277029  0.8400718631342018
  0.8901821983375372  0.1108320393227120  0.5755342988713531
  0.4331819507136885  0.1951536304156936  0.3879891405363325
  0.5530753677095991  0.1138187320291842  0.1215907092140786
  0.1080490359109252  0.2261577445736313  0.8265261975100644
  0.2245652195616565  0.1084233501588997  0.6325886769567713
  0.7804502198885326  0.2205647307495085  0.3289238774031310
  0.8917713948345625  0.1092427164576806  0.0747300508078183
  0.4414558858786525  0.2206315133165570  0.8840988205568752
  0.5543957594412005  0.1091936441930236  0.6346278784111246
  0.1146238093852644  0.5620299034538252  0.3214557957291334
  0.2206687802186122  0.4431520914059828  0.0729276031915955
  0.7803823347468660  0.5595579180859471  0.8840988283438130
  0.8918201266963043  0.4466182278765250  0.6346279458399090
  0.4225984905736035  0.5784158065716928  0.3193638884473515
  0.5550112915756586  0.4460024938859015  0.1292904263163759
  0.1204176799108849  0.5605106755026974  0.8300255620918009
  0.1958684240103914  0.4343185252667968  0.5688146204344152
  0.8058607007470855  0.5678324753942081  0.3879891949876499
  0.8871957745500134  0.4479394254223831  0.1215907156122214
  0.4466066761810883  0.5544071877495281  0.8273916727371259
  0.5791966753385543  0.4218170123320014  0.6377575213236957
  0.1080123837608425  0.8930019750115349  0.3818576294371546
  0.2242511821396521  0.7767633442925861  0.0759809235417908
  0.7748561050665803  0.8929648270735425  0.8265261743822984
  0.8925905019649336  0.7764486845721140  0.6325886406391800
  0.4389847973367399  0.8863910042731971  0.3214558914469653
  0.5578620589010969  0.7803452993439827  0.0729275736303167
  0.1082291908681138  0.8927845144270329  0.8809311623983993
  0.2251339612117863  0.7758801084139927  0.5760449922872688
  0.7761621208648045  0.8937933268770154  0.3247986890638079
  0.8921320884011293  0.7754835206232176  0.1307858471010306
  0.4405034310033435  0.8805963764957223  0.8300256051060807
  0.5666954715866844  0.8051454023862572  0.5688146645439942
 
             NaN             NaN             NaN
             NaN             NaN             NaN
             NaN             NaN             NaN
             NaN             NaN             NaN
             NaN             NaN             NaN
             NaN             NaN             NaN
             NaN             NaN             NaN
             NaN             NaN             NaN
             NaN             NaN             NaN
             NaN             NaN             NaN
             NaN             NaN             NaN
             NaN             NaN             NaN
             NaN             NaN             NaN
             NaN             NaN             NaN
             NaN             NaN             NaN
             NaN             NaN             NaN
             NaN             NaN             NaN
             NaN             NaN             NaN
             NaN             NaN             NaN
             NaN             NaN             NaN
             NaN             NaN             NaN
             NaN             NaN             NaN
             NaN             NaN             NaN
             NaN             NaN             NaN
             NaN             NaN             NaN
             NaN             NaN             NaN
             NaN             NaN             NaN
             NaN             NaN             NaN
             NaN             NaN             NaN
             NaN             NaN             NaN
             NaN             NaN             NaN
             NaN             NaN             NaN
             NaN             NaN             NaN
             NaN             NaN             NaN
             NaN             NaN             NaN
             NaN             NaN             NaN
             NaN             NaN             NaN
             NaN             NaN             NaN
             NaN             NaN             NaN
             NaN             NaN             NaN
             NaN             NaN             NaN
             NaN             NaN             NaN
             NaN             NaN             NaN
             NaN             NaN             NaN
             NaN             NaN             NaN
             NaN             NaN             NaN
             NaN             NaN             NaN
             NaN             NaN             NaN
             NaN             NaN             NaN
             NaN             NaN             NaN
             NaN             NaN             NaN
             NaN             NaN             NaN
             NaN             NaN             NaN
             NaN             NaN             NaN
             NaN             NaN             NaN
             NaN             NaN             NaN
             NaN             NaN             NaN
             NaN             NaN             NaN
             NaN             NaN             NaN
             NaN             NaN             NaN
             NaN             NaN             NaN
             NaN             NaN             NaN
             NaN             NaN             NaN
             NaN             NaN             NaN
             NaN             NaN             NaN
             NaN             NaN             NaN
             NaN             NaN             NaN
             NaN             NaN             NaN
             NaN             NaN             NaN
             NaN             NaN             NaN
             NaN             NaN             NaN
             NaN             NaN             NaN
