Al   Hf   N                             
   1.00000000000000     
     9.5270391466171880   -0.0138616106372715    0.0143265221995457
    -4.7460761359804495    8.2607161225953565   -0.0138541946147614
     0.0941960333929299   -0.0551498562903745   10.2940956833750921
   Al   Hf   N 
    34     2    36
Direct
  0.2227574951794853  0.1052312441189757  0.3202506905547322
  0.1089898446517770  0.2241206722480158  0.1373991887202284
  0.8932045582915259  0.1081980995438195  0.8892233304786414
  0.7758510711542707  0.2255528772121985  0.5714110631614373
  0.5617658590926305  0.1157307808737385  0.3167962926726741
  0.4445759190520888  0.2251094874188913  0.0713457908952081
  0.2255445646946490  0.1096182721819972  0.8208335279942289
  0.1042906724961910  0.2212856078422023  0.6382788348234943
  0.8930239342704552  0.1083785665210069  0.3889272619416259
  0.7755819431444532  0.2258212507446450  0.0678138972379514
  0.5613838042946406  0.1175367693682999  0.8242190371686001
  0.4428906435676799  0.2081586864104686  0.5752314066930103
  0.2081172718522528  0.4434878271908640  0.3841343606048759
  0.1116024605453958  0.5536201547814324  0.1309011331742389
  0.8838663019339070  0.4400195333870445  0.8242188704576306
  0.7932445138322175  0.5585123421298438  0.5752312910625743
  0.4385052784466395  0.5628973943876919  0.1339766296365432
  0.2244551262387989  0.4438300808999223  0.8882533471595428
  0.1111773186314096  0.5560838448479101  0.6428464180875926
  0.8856714503711886  0.4396368443629491  0.3167960742735357
  0.7762929956005808  0.5568264838282961  0.0713458236733897
  0.5623353521412214  0.4390677772889345  0.8249585798014573
  0.2209000339690665  0.7805025667753838  0.3255216712411734
  0.1105617663948014  0.8908407506479143  0.0691240271312391
  0.8917847059676314  0.7758582790521070  0.8208334649273656
  0.7801177790587801  0.8971125034595273  0.6382788526326142
  0.5579147376264046  0.7932849805871295  0.3841343077768613
  0.4477832629453318  0.8898010243140857  0.1309011085438172
  0.2217788409308568  0.7796249605196145  0.8442060921910535
  0.1125346273099143  0.8888688792711629  0.5698850253766015
  0.8961717780195220  0.7786454029837284  0.3202507249582704
  0.7772817950998113  0.8924124944088542  0.1373991902900265
  0.5575726496093987  0.7769473179335556  0.8882533415781939
  0.4453208166024321  0.8902272284914645  0.6428463525161803
  0.5502849764408686  0.4511177104745467  0.3540188963968336
  0.4500385080966447  0.5513646014611800  0.6055119552224624
  0.1084568198124133  0.2250143979291805  0.3252151558356789
  0.2263160600357038  0.1085787874654398  0.1313487239487002
  0.7768780412273365  0.2245249975086238  0.8817760544122512
  0.8930567684451232  0.1083467328619362  0.5759621258333564
  0.4343664744638658  0.1960081132091482  0.3889772040997936
  0.5605301117658188  0.1205982418170164  0.1277151576192972
  0.1089757230266063  0.2257721735181648  0.8270189355116794
  0.2249014316070312  0.1076614322745744  0.6328944567289791
  0.7759431340919090  0.2254593179305504  0.3817148195254614
  0.8928669462939742  0.1085357655172905  0.0768836297594132
  0.4432401041179240  0.2208699282007839  0.8848242684504883
  0.5619770813523791  0.1146288060218733  0.6364273121505065
  0.1095604313938605  0.5550551462488934  0.3225701702389490
  0.2207100377784499  0.4417461443846666  0.0737129469558609
  0.7805326411968262  0.5581625357018070  0.8848242854816987
  0.8867755034236378  0.4394268502574326  0.6364270940777726
  0.4218687872384812  0.5795338108543525  0.3201059543673460
  0.5544988851410388  0.4469032227630660  0.1304754171812319
  0.1141605381704095  0.5534571885304035  0.8361384619695365
  0.1950890987420937  0.4336333827160693  0.5699672617886700
  0.8053942736732739  0.5670360709974416  0.3889771553708205
  0.8808050401672389  0.4408729538224538  0.1277149775340872
  0.4461629944094165  0.5552399800987378  0.8285370885467519
  0.5784625739035036  0.4229404883141265  0.6381925454888775
  0.1104889392888018  0.8909137638811848  0.3818641513150706
  0.2215809164353554  0.7798225795784040  0.1113899843435515
  0.7756309658037202  0.8924272529162115  0.8270189440554238
  0.8937416267904279  0.7765013587348309  0.6328943593326275
  0.4463473892833758  0.8918417359200196  0.3225701716850006
  0.5596568146987404  0.7806928962409971  0.0737129282940453
  0.1089578929695541  0.8924447526266521  0.8831219293305841
  0.2212428820884920  0.7801617822445180  0.6229272659166514
  0.7763885320138457  0.8929460512687996  0.3252151104792279
  0.8928234247597060  0.7750860258087853  0.1313487573754385
  0.4479464425451872  0.8872426449276418  0.8361384562351903
  0.5677702643407599  0.8063143527257532  0.5699672423324629
 
             NaN             NaN             NaN
             NaN             NaN             NaN
             NaN             NaN             NaN
             NaN             NaN             NaN
             NaN             NaN             NaN
             NaN             NaN             NaN
             NaN             NaN             NaN
             NaN             NaN             NaN
             NaN             NaN             NaN
             NaN             NaN             NaN
             NaN             NaN             NaN
             NaN             NaN             NaN
             NaN             NaN             NaN
             NaN             NaN             NaN
             NaN             NaN             NaN
             NaN             NaN             NaN
             NaN             NaN             NaN
             NaN             NaN             NaN
             NaN             NaN             NaN
             NaN             NaN             NaN
             NaN             NaN             NaN
             NaN             NaN             NaN
             NaN             NaN             NaN
             NaN             NaN             NaN
             NaN             NaN             NaN
             NaN             NaN             NaN
             NaN             NaN             NaN
             NaN             NaN             NaN
             NaN             NaN             NaN
             NaN             NaN             NaN
             NaN             NaN             NaN
             NaN             NaN             NaN
             NaN             NaN             NaN
             NaN             NaN             NaN
             NaN             NaN             NaN
             NaN             NaN             NaN
             NaN             NaN             NaN
             NaN             NaN             NaN
             NaN             NaN             NaN
             NaN             NaN             NaN
             NaN             NaN             NaN
             NaN             NaN             NaN
             NaN             NaN             NaN
             NaN             NaN             NaN
             NaN             NaN             NaN
             NaN             NaN             NaN
             NaN             NaN             NaN
             NaN             NaN             NaN
             NaN             NaN             NaN
             NaN             NaN             NaN
             NaN             NaN             NaN
             NaN             NaN             NaN
             NaN             NaN             NaN
             NaN             NaN             NaN
             NaN             NaN             NaN
             NaN             NaN             NaN
             NaN             NaN             NaN
             NaN             NaN             NaN
             NaN             NaN             NaN
             NaN             NaN             NaN
             NaN             NaN             NaN
             NaN             NaN             NaN
             NaN             NaN             NaN
             NaN             NaN             NaN
             NaN             NaN             NaN
             NaN             NaN             NaN
             NaN             NaN             NaN
             NaN             NaN             NaN
             NaN             NaN             NaN
             NaN             NaN             NaN
             NaN             NaN             NaN
             NaN             NaN             NaN
