Al   Hf   N                             
   1.00000000000000     
     9.5266811700229308   -0.0120492201453921    0.0259390082027819
    -4.7617259792824855    8.2550924759337470   -0.0258532600889761
     0.0421566169309262   -0.0190240544120245   10.0435348143971410
   Al   Hf   N 
    34     2    36
Direct
  0.2176679877925238  0.1049325018800218  0.3142253155882955
  0.1091052854287753  0.2203662796799009  0.0630310748126988
  0.8898409126368065  0.1111892868528628  0.8122568535592194
  0.7783971970069388  0.2224931394142260  0.5665297479140037
  0.5559964257599859  0.1068891872296192  0.3125795008846595
  0.4435450159164560  0.2228180040565917  0.0645697243064234
  0.2215171918640166  0.1104368703228786  0.8166874553997800
  0.1082225257629190  0.2184629720989548  0.5625763409749993
  0.8886001205517289  0.1118459041384696  0.3127997255229928
  0.7780614148238314  0.2229396539038575  0.0633087909082377
  0.5565437025864597  0.1106859620345872  0.8155539616619336
  0.4398798354893856  0.2086481271842189  0.5701892684404868
  0.2066779270829429  0.4405844890677173  0.3110474191715014
  0.1091133815783749  0.5576025443203321  0.0626732701351429
  0.8903444447952253  0.4445146242291713  0.8156123503794959
  0.7916183571809796  0.5605820575869913  0.5701329765354757
  0.4410342461908883  0.5595983224595571  0.1096326045505904
  0.2169725631169825  0.4416079031542566  0.8167613809642447
  0.1058677581549006  0.5543392279318198  0.5638752324802994
  0.8937394626989317  0.4447766141262619  0.3125803959686095
  0.7778011888980672  0.5572323489164077  0.0645214799443110
  0.5604166326482272  0.4403391997003681  0.8172909566743130
  0.2226517709626918  0.7779934316682713  0.3155389143343115
  0.1116564086989342  0.8889622114236531  0.0645055156409597
  0.8901368279622446  0.7792504854092073  0.8166128629970189
  0.7820157848787872  0.8924783844350728  0.5623300835560627
  0.5598344013455261  0.7939193299675651  0.3104163920059122
  0.4433475552280868  0.8918021352654009  0.0624849788978281
  0.2228351692939583  0.7781667859264445  0.8139707651796471
  0.1114808690600100  0.8888305641485559  0.5654706127710583
  0.8952391450885102  0.7827766493191675  0.3141452462638270
  0.7802651922265653  0.8916988456982011  0.0627895167472161
  0.5594391552452649  0.7843097772565102  0.8161104665292456
  0.4464264538452056  0.8949037662617343  0.5636429952245265
  0.5551133986222254  0.4450827256924086  0.3466906082315049
  0.4469048166746958  0.5537973745522109  0.5785863161790061
  0.1097374819305585  0.2205150950995076  0.3701987128933268
  0.2214063764221308  0.1113129128160111  0.1231335850928374
  0.7788244221213176  0.2222731274050744  0.8725551571032923
  0.8896364000707067  0.1109001482657845  0.6212286423082318
  0.4305723735568776  0.1915481169941700  0.3797642576613924
  0.5560198500862157  0.1133012137554772  0.1220127070113080
  0.1099765561615342  0.2202853882336342  0.8736927604794786
  0.2194455801887685  0.1090249931324863  0.6261490657289386
  0.7776199560906463  0.2231713854407573  0.3727964113441331
  0.8882519650436862  0.1123656447969310  0.1223672453604081
  0.4435870982070682  0.2197790884783828  0.8747146610124119
  0.5570570378339994  0.1093783191029516  0.6261732147474675
  0.1088700069216060  0.5563603971140409  0.3731649775141150
  0.2126387952251534  0.4409137540913264  0.1181807510472339
  0.7809859645490818  0.5572422748220944  0.8746740876242640
  0.8912313955117526  0.4437466026604113  0.6262316649708808
  0.4260213207027448  0.5746950844621566  0.3370655426196265
  0.5547356752828705  0.4457857616814920  0.1201785501286352
  0.1114363677186390  0.5578158317728779  0.8736811387358401
  0.1940529747295443  0.4304897618063848  0.6260214751223074
  0.8086723095354245  0.5698781013345027  0.3796840776135042
  0.8874460205539307  0.4448868748959001  0.1220203856868238
  0.4462298040863146  0.5551073858382267  0.8346523939393293
  0.5750861187044549  0.4251201647350271  0.6259256262261772
  0.1113226952411921  0.8888891299219424  0.3741208417666115
  0.2222621985803599  0.7786109397034835  0.1238826599326615
  0.7805278431307059  0.8910609765113691  0.8735148737203815
  0.8911129010497589  0.7809446255851995  0.6260472011134866
  0.4443310487700529  0.8917378505724756  0.3730089810467447
  0.5596939575775224  0.7880144741884436  0.1180842557618504
  0.1118984306781599  0.8887417275914302  0.8739837322618769
  0.2229748142201942  0.7777617023019516  0.6217890348733590
  0.7796529015941474  0.8907036059537106  0.3700358401552535
  0.8891343566200121  0.7792627057536379  0.1230348267771149
  0.4432621179882332  0.8896455282751035  0.8735472345405739
  0.5700437223896770  0.8066388990705917  0.6258390305702406
 
             NaN             NaN             NaN
             NaN             NaN             NaN
             NaN             NaN             NaN
             NaN             NaN             NaN
             NaN             NaN             NaN
             NaN             NaN             NaN
             NaN             NaN             NaN
             NaN             NaN             NaN
             NaN             NaN             NaN
             NaN             NaN             NaN
             NaN             NaN             NaN
             NaN             NaN             NaN
             NaN             NaN             NaN
             NaN             NaN             NaN
             NaN             NaN             NaN
             NaN             NaN             NaN
             NaN             NaN             NaN
             NaN             NaN             NaN
             NaN             NaN             NaN
             NaN             NaN             NaN
             NaN             NaN             NaN
             NaN             NaN             NaN
             NaN             NaN             NaN
             NaN             NaN             NaN
             NaN             NaN             NaN
             NaN             NaN             NaN
             NaN             NaN             NaN
             NaN             NaN             NaN
             NaN             NaN             NaN
             NaN             NaN             NaN
             NaN             NaN             NaN
             NaN             NaN             NaN
             NaN             NaN             NaN
             NaN             NaN             NaN
             NaN             NaN             NaN
             NaN             NaN             NaN
             NaN             NaN             NaN
             NaN             NaN             NaN
             NaN             NaN             NaN
             NaN             NaN             NaN
             NaN             NaN             NaN
             NaN             NaN             NaN
             NaN             NaN             NaN
             NaN             NaN             NaN
             NaN             NaN             NaN
             NaN             NaN             NaN
             NaN             NaN             NaN
             NaN             NaN             NaN
             NaN             NaN             NaN
             NaN             NaN             NaN
             NaN             NaN             NaN
             NaN             NaN             NaN
             NaN             NaN             NaN
             NaN             NaN             NaN
             NaN             NaN             NaN
             NaN             NaN             NaN
             NaN             NaN             NaN
             NaN             NaN             NaN
             NaN             NaN             NaN
             NaN             NaN             NaN
             NaN             NaN             NaN
             NaN             NaN             NaN
             NaN             NaN             NaN
             NaN             NaN             NaN
             NaN             NaN             NaN
             NaN             NaN             NaN
             NaN             NaN             NaN
             NaN             NaN             NaN
             NaN             NaN             NaN
             NaN             NaN             NaN
             NaN             NaN             NaN
             NaN             NaN             NaN
