Al   Hf   N                             
   1.00000000000000     
     9.5636145045537013    0.0020151954589286    0.0120216711638298
    -4.8186211425677374    8.2430284623572234   -0.0275127305769108
     0.0895494754077149   -0.0391055904987121   10.2013191629482467
   Al   Hf   N 
    34     2    36
Direct
  0.2140460979085484  0.1087751313260839  0.3890172501504753
  0.1089107502327247  0.2227008699725468  0.1347832156639009
  0.8885393811439570  0.1118718278618169  0.8873078823192869
  0.7787877805389417  0.2230001236048309  0.6380937117709816
  0.5618938913478694  0.1020787470167154  0.3879602015952845
  0.4466362434191019  0.2286190814553144  0.0691026276960246
  0.2172536938056483  0.1115771577639371  0.8827124131909319
  0.1037968535202278  0.2196945056180092  0.6370682689293951
  0.8893906791211763  0.1101970091812580  0.3863836883708460
  0.7780626587444596  0.2235368298287774  0.1375115768596935
  0.5600557754279388  0.1070706618757991  0.8865512275818525
  0.4460048273500311  0.2145900418359008  0.5745847906968423
  0.2097743307186893  0.4421513950612941  0.3808263795291993
  0.1083447522431140  0.5558322675147445  0.1353201239620478
  0.8935475266755432  0.4418111007877555  0.8877030924159394
  0.7881117348938037  0.5603849914615638  0.5706570381665954
  0.4353372304079483  0.5639571330176560  0.1288032568629494
  0.2238233925232508  0.4444658255066835  0.8841055408029771
  0.1072037605356911  0.5550433641387787  0.6384113626702894
  0.8983854191274928  0.4406075051793999  0.3881300292850344
  0.7744720479337563  0.5592905751883548  0.0678932446029913
  0.5637869571106495  0.4376280131135296  0.8228738517248034
  0.2236241682889255  0.7782312722507561  0.3841644415447960
  0.1128436024034489  0.8903618020000473  0.1038701136836638
  0.8886365224299565  0.7747704919812658  0.8206148653005588
  0.7775559795802589  0.8968479328879605  0.6356319605732502
  0.5580522317210805  0.7899518284498731  0.3809495808236347
  0.4444964344724009  0.8919644548707408  0.1358786856100909
  0.2243376684965447  0.7766296503175356  0.8853705237696081
  0.1126929778735978  0.8882062865645214  0.6137880799819893
  0.8957568026516908  0.7797697975110681  0.3170086374634309
  0.7744796522291473  0.8934589312637172  0.1330363542794871
  0.5560205802945793  0.7762939443210851  0.8843536885226430
  0.4446779163379614  0.8920483126824558  0.6392414419309782
  0.5507745406424477  0.4497012900862670  0.3441775080458006
  0.4502729581187682  0.5483098900504265  0.6026309681075861
  0.1096895316050985  0.2211599088172687  0.3233781719763329
  0.2168416126236029  0.1136361193205832  0.0766359628968258
  0.7797316249197881  0.2225620305893969  0.8266794846032333
  0.8888874591348026  0.1112232465054921  0.5750360319038339
  0.4390851442738195  0.2010780238343737  0.3789187964676592
  0.5595738171828069  0.1107414932471533  0.0780637448007723
  0.1093217451981241  0.2228001844620693  0.8253732747501993
  0.2162189116126564  0.1118462418666420  0.5839593859558042
  0.7806502050654781  0.2215857234506863  0.3267553713154075
  0.8886153985841653  0.1128008264357261  0.0754561981289082
  0.4466626756508906  0.2226588808881874  0.8770891090197300
  0.5616529147374818  0.1048498853656912  0.5792568150898345
  0.1088998169600488  0.5571401450919971  0.3222667355693413
  0.2172204334689460  0.4433600383027465  0.0724288251344574
  0.7793844891269055  0.5594480156112925  0.8806492181023740
  0.8945089891154114  0.4397622038574352  0.5781300671390366
  0.4211274078161407  0.5782671880729532  0.3164128182109411
  0.5534754615101631  0.4481921034476593  0.1247094925764085
  0.1128537666490672  0.5554350233535764  0.8264767952862683
  0.1959087753150099  0.4333878804361422  0.5691875053451588
  0.8018086460016043  0.5684980947161092  0.3810684243449313
  0.8894291511442458  0.4418148765861165  0.0779532572690384
  0.4459357568190605  0.5539044125602579  0.8272915137586622
  0.5810978643100800  0.4220473727993554  0.6389692252624614
  0.1145438182912313  0.8908827816657540  0.3475328835474737
  0.2245311777914091  0.7766616900335830  0.0752993482240806
  0.7751681925313668  0.8932696913663024  0.8269177209357725
  0.8870750383514202  0.7746924830847900  0.6295862712486543
  0.4439218009283157  0.8911723464570516  0.3225976725548931
  0.5559635999129895  0.7820612548803363  0.0720532838028129
  0.1136039297431337  0.8884921100348245  0.8457939442511591
  0.2248813957056004  0.7757800065697631  0.5769314521999266
  0.7760655576244965  0.8928778446472516  0.3232126818149186
  0.8879280757114029  0.7757984942265674  0.1245284164769048
  0.4448798629954265  0.8868672957793287  0.8268013756448507
  0.5652299327980055  0.8025428406269991  0.5690810027800801
 
             NaN             NaN             NaN
             NaN             NaN             NaN
             NaN             NaN             NaN
             NaN             NaN             NaN
             NaN             NaN             NaN
             NaN             NaN             NaN
             NaN             NaN             NaN
             NaN             NaN             NaN
             NaN             NaN             NaN
             NaN             NaN             NaN
             NaN             NaN             NaN
             NaN             NaN             NaN
             NaN             NaN             NaN
             NaN             NaN             NaN
             NaN             NaN             NaN
             NaN             NaN             NaN
             NaN             NaN             NaN
             NaN             NaN             NaN
             NaN             NaN             NaN
             NaN             NaN             NaN
             NaN             NaN             NaN
             NaN             NaN             NaN
             NaN             NaN             NaN
             NaN             NaN             NaN
             NaN             NaN             NaN
             NaN             NaN             NaN
             NaN             NaN             NaN
             NaN             NaN             NaN
             NaN             NaN             NaN
             NaN             NaN             NaN
             NaN             NaN             NaN
             NaN             NaN             NaN
             NaN             NaN             NaN
             NaN             NaN             NaN
             NaN             NaN             NaN
             NaN             NaN             NaN
             NaN             NaN             NaN
             NaN             NaN             NaN
             NaN             NaN             NaN
             NaN             NaN             NaN
             NaN             NaN             NaN
             NaN             NaN             NaN
             NaN             NaN             NaN
             NaN             NaN             NaN
             NaN             NaN             NaN
             NaN             NaN             NaN
             NaN             NaN             NaN
             NaN             NaN             NaN
             NaN             NaN             NaN
             NaN             NaN             NaN
             NaN             NaN             NaN
             NaN             NaN             NaN
             NaN             NaN             NaN
             NaN             NaN             NaN
             NaN             NaN             NaN
             NaN             NaN             NaN
             NaN             NaN             NaN
             NaN             NaN             NaN
             NaN             NaN             NaN
             NaN             NaN             NaN
             NaN             NaN             NaN
             NaN             NaN             NaN
             NaN             NaN             NaN
             NaN             NaN             NaN
             NaN             NaN             NaN
             NaN             NaN             NaN
             NaN             NaN             NaN
             NaN             NaN             NaN
             NaN             NaN             NaN
             NaN             NaN             NaN
             NaN             NaN             NaN
             NaN             NaN             NaN
