Al   Hf   N                             
   1.00000000000000     
     9.5454674735671503   -0.0082488373449923    0.0234651758036161
    -4.7975585864258221    8.2522431361410291   -0.0219550810180365
     0.0815689392953322   -0.0487929080417541   10.2397352205284182
   Al   Hf   N 
    34     2    36
Direct
  0.2226675779817053  0.1039558953315521  0.3219542247642993
  0.1149888909391703  0.2271461956303809  0.1344295543660846
  0.8866314713639003  0.1147313571682288  0.8351014361155815
  0.7784725001619401  0.2228903900045945  0.5726807014976056
  0.5558395831288527  0.1079371144675626  0.3189762598073325
  0.4457059649150745  0.2242910447169331  0.0733835996628597
  0.2264395249905910  0.1076175886634410  0.8253303392804964
  0.1089845998239878  0.2234323672275848  0.6406572247139957
  0.8860873353848150  0.1152751822517857  0.3248314411864556
  0.7775754578277808  0.2237876935827064  0.0703491397306327
  0.5561650397578691  0.1089687482904719  0.8219462874392517
  0.4430602275894859  0.2104517796428126  0.5765431725109258
  0.2124993498932010  0.4406510897750590  0.3858598094829172
  0.1073988580770692  0.5594236396868740  0.0697554570934900
  0.8923942768876904  0.4451978014911841  0.8219463737416457
  0.7909113861998428  0.5583026701110438  0.5765432234994192
  0.4375551184774620  0.5638082530288679  0.1349285598422054
  0.2274234344962262  0.4425451164364805  0.8896067357923881
  0.1023867537840109  0.5607068131440609  0.5690480181514717
  0.8934260932403019  0.4455234387925099  0.3189762495640791
  0.7770721323438624  0.5556573074376169  0.0733835849432473
  0.5644317638902648  0.4369316818611920  0.8283898330450591
  0.2233817134423031  0.7779814868030752  0.3196174016411915
  0.1127223638449069  0.8886412426327063  0.0703361447816185
  0.8937458165759056  0.7749237560989667  0.8253303943998870
  0.7779305500886112  0.8923782998973515  0.6406574317604067
  0.5607119992318581  0.7888637038854275  0.3858597974762292
  0.4419397444405209  0.8939645680483502  0.0697554219393416
  0.2239417128848872  0.7774211458160788  0.8198919551393976
  0.1110590922927048  0.8903039058632118  0.5710443284519593
  0.8974077534383013  0.7786957610059434  0.3219541294473879
  0.7742171962005872  0.8863744280947414  0.1344293900906521
  0.5588177241640304  0.7739396427406324  0.8896066779359801
  0.4406563412477151  0.8989762872400607  0.5690481059391044
  0.5492861135888470  0.4520776240619810  0.3543669959413407
  0.4501356657991365  0.5512271452953197  0.6117466246767749
  0.1137384795077299  0.2264547019245923  0.3271594117177837
  0.2264339472619001  0.1071240605817667  0.1308781035506599
  0.7763436438400708  0.2250188392119414  0.8828823558733624
  0.8864064234810765  0.1149567208453927  0.6269755748767983
  0.4352301125483440  0.1977437602005566  0.3890033107293360
  0.5570189660371820  0.1133175831078942  0.1313792616936947
  0.1146752273269952  0.2261029190757994  0.8345637564261449
  0.2249184271858850  0.1074300308523751  0.6350273456472481
  0.7768674019207766  0.2244952397464934  0.3817145145954280
  0.8872165887203327  0.1141469595424442  0.1190779273775131
  0.4451583562316832  0.2190260380117003  0.8860351048662545
  0.5577867015816002  0.1094320260711320  0.6353569459894556
  0.1058606383095746  0.5614980308034926  0.3796936269740656
  0.2227659679043862  0.4426540649303364  0.0763194377541098
  0.7823370184387277  0.5562045820384570  0.8860350817797306
  0.8919306131146424  0.4435758135937676  0.6353570698470338
  0.4202650258679410  0.5810985602262539  0.3186035380171218
  0.5547705671559193  0.4465921616824500  0.1307024254245771
  0.1111818161433758  0.5594249109691599  0.8799200418797152
  0.1990651557233935  0.4324203222389320  0.5750235353093162
  0.8036196272263935  0.5661329817733810  0.3890034108414837
  0.8880453182329532  0.4443439810404426  0.1313792490573212
  0.4475087070407908  0.5538548689448236  0.8313716203984680
  0.5790011798363395  0.4223614906772660  0.6412986369153169
  0.1115888038617404  0.8897744075838036  0.3831416332302216
  0.2229915526053531  0.7783715769669375  0.1313459462584435
  0.7752603502331162  0.8866878382871413  0.8345638289105000
  0.8939326596374075  0.7764441136046789  0.6350273990555780
  0.4398648141024759  0.8955021389542688  0.3796937155935744
  0.5587096444156185  0.7785978551021837  0.0763193604436163
  0.1129513546424194  0.8884116881854942  0.8830684290520457
  0.2220182744008692  0.7793443710557172  0.6310175516533388
  0.7749085177166877  0.8876242845101322  0.3271591856448019
  0.8942391062247235  0.7749290394445857  0.1308779995162165
  0.4419376456587614  0.8901809239767510  0.8799200140396988
  0.5689430887162841  0.8022981428095086  0.5750235987658018
 
             NaN             NaN             NaN
             NaN             NaN             NaN
             NaN             NaN             NaN
             NaN             NaN             NaN
             NaN             NaN             NaN
             NaN             NaN             NaN
             NaN             NaN             NaN
             NaN             NaN             NaN
             NaN             NaN             NaN
             NaN             NaN             NaN
             NaN             NaN             NaN
             NaN             NaN             NaN
             NaN             NaN             NaN
             NaN             NaN             NaN
             NaN             NaN             NaN
             NaN             NaN             NaN
             NaN             NaN             NaN
             NaN             NaN             NaN
             NaN             NaN             NaN
             NaN             NaN             NaN
             NaN             NaN             NaN
             NaN             NaN             NaN
             NaN             NaN             NaN
             NaN             NaN             NaN
             NaN             NaN             NaN
             NaN             NaN             NaN
             NaN             NaN             NaN
             NaN             NaN             NaN
             NaN             NaN             NaN
             NaN             NaN             NaN
             NaN             NaN             NaN
             NaN             NaN             NaN
             NaN             NaN             NaN
             NaN             NaN             NaN
             NaN             NaN             NaN
             NaN             NaN             NaN
             NaN             NaN             NaN
             NaN             NaN             NaN
             NaN             NaN             NaN
             NaN             NaN             NaN
             NaN             NaN             NaN
             NaN             NaN             NaN
             NaN             NaN             NaN
             NaN             NaN             NaN
             NaN             NaN             NaN
             NaN             NaN             NaN
             NaN             NaN             NaN
             NaN             NaN             NaN
             NaN             NaN             NaN
             NaN             NaN             NaN
             NaN             NaN             NaN
             NaN             NaN             NaN
             NaN             NaN             NaN
             NaN             NaN             NaN
             NaN             NaN             NaN
             NaN             NaN             NaN
             NaN             NaN             NaN
             NaN             NaN             NaN
             NaN             NaN             NaN
             NaN             NaN             NaN
             NaN             NaN             NaN
             NaN             NaN             NaN
             NaN             NaN             NaN
             NaN             NaN             NaN
             NaN             NaN             NaN
             NaN             NaN             NaN
             NaN             NaN             NaN
             NaN             NaN             NaN
             NaN             NaN             NaN
             NaN             NaN             NaN
             NaN             NaN             NaN
             NaN             NaN             NaN
