Al   Hf   N                             
   1.00000000000000     
     9.5568270364480199   -0.0132220560577173    0.0268463012199917
    -4.8143646891518710    8.2493826049222765   -0.0261744287311111
     0.0815395949654068   -0.0444581230971566   10.1536042188062670
   Al   Hf   N 
    34     2    36
Direct
  0.2199605089179008  0.1049405291558237  0.3227438613315272
  0.1095712814548436  0.2170996987456847  0.0788179738203915
  0.8895733996222907  0.1099420214308290  0.8221510027066038
  0.7783990209072659  0.2219664305254641  0.5742768950800978
  0.5570570639571353  0.1089494937923855  0.3201975006019925
  0.4452765534344348  0.2247336111204133  0.0748037455226232
  0.2222462811418504  0.1091609738917024  0.8260876627121906
  0.1065706960934076  0.2137312007483767  0.5751603346036664
  0.8888093019603573  0.1117082513339128  0.3194696392862613
  0.7779136542565186  0.2225868077766386  0.0710185648624456
  0.5565860714823203  0.1090353510116408  0.8235325971095759
  0.4426414871624721  0.2110913149625119  0.5783241550850333
  0.2129321237109267  0.4434164783980765  0.3846544343783928
  0.1069519396277758  0.5597762457619164  0.0720012087270817
  0.8916511656639593  0.4437618897731274  0.8236456397444074
  0.7904925941936478  0.5587989671401394  0.5780814580918167
  0.4376270430890978  0.5642595177436518  0.1366451702307276
  0.2264027635867761  0.4438820145083225  0.8894782510566073
  0.1017177673628426  0.5615168234914178  0.5706468173325081
  0.8923277279521098  0.4440067225874536  0.3202699010107927
  0.7765854459201402  0.5563673307415330  0.0748774176102343
  0.5647386009918228  0.4364263970818369  0.8300897870429036
  0.2220576799299498  0.7787522974969933  0.3205356620497549
  0.1118882396064455  0.8886671356645218  0.0714673123898322
  0.8915160928332250  0.7786010370800567  0.8246655727698823
  0.7877377810011624  0.8943729062038637  0.5701499599960576
  0.5571003148894618  0.7882452324544986  0.3846179182034457
  0.4409233964199479  0.8938890138437332  0.0720426691703952
  0.2223949873585546  0.7776077288993635  0.8214130169232571
  0.1110308130365497  0.8899363733221221  0.5725723691487712
  0.8965635660352989  0.7820652684871819  0.3223799513104273
  0.7844823343262869  0.8916867897634652  0.0732301711257044
  0.5550843238308131  0.7735145668901779  0.8886871590488188
  0.4390262353365112  0.8990999688986189  0.5708194559010394
  0.5501724514486132  0.4514435434972162  0.3568883476011842
  0.4495928228905454  0.5519873037965991  0.6147171985072711
  0.1084975158246627  0.2149632539594995  0.3735268062163546
  0.2231914796632048  0.1097575582170434  0.1329334731640705
  0.7787074652218249  0.2212867458706902  0.8817535808089731
  0.8885849844539347  0.1108182875778581  0.6326244077962441
  0.4345929170067998  0.1971728574442758  0.3892119573927355
  0.5567922520967281  0.1142734027685395  0.1313737841131964
  0.1086484229797047  0.2147085783990465  0.8805958685874919
  0.2215880772500440  0.1101066343215154  0.6359559817938307
  0.7784798641892872  0.2222543069243850  0.3822418490652147
  0.8871337663576554  0.1120862843765153  0.1311440083052732
  0.4439635327231886  0.2180014535420520  0.8861484702608314
  0.5573255047529099  0.1100843685011664  0.6357802806657492
  0.1055459625386299  0.5613145268657581  0.3791883433001423
  0.2219268980357040  0.4459004298277214  0.0826551637396826
  0.7831315769491981  0.5571818553597064  0.8860109229599609
  0.8908499561619386  0.4432908158332360  0.6357392862708443
  0.4216350149387764  0.5797606084244739  0.3215061407891887
  0.5543917063333359  0.4470048900763755  0.1316357028242543
  0.1107832328970262  0.5589222203957639  0.8803198951175955
  0.1995157573535128  0.4377555865332356  0.5814186467907017
  0.8044533851453279  0.5671036148040295  0.3888556194638845
  0.8866755332741975  0.4440755245157402  0.1313493608368295
  0.4472760143952700  0.5526856827179776  0.8346245949111002
  0.5790128985330166  0.4227230338182648  0.6417853843999796
  0.1121402365500972  0.8891746144727329  0.3832744908489082
  0.2210822940439739  0.7795083242489825  0.1316426705664413
  0.7853546929199098  0.8910459901630519  0.8810174708242303
  0.8907047146579813  0.7800770584750897  0.6350581689400775
  0.4394367703133283  0.8956431077012316  0.3790842673530272
  0.5553270466506733  0.7795791565422272  0.0820156105511397
  0.1122775120892638  0.8877682553055631  0.8827215334113042
  0.2201324586956113  0.7803227829130727  0.6315841190930883
  0.7871911009558343  0.8931974297220046  0.3769725349173561
  0.8907130670074738  0.7789206092835532  0.1328416403207256
  0.4409609067879661  0.8897898311856820  0.8801313279095607
  0.5632545158237832  0.8019381788012967  0.5815376189559648
 
             NaN             NaN             NaN
             NaN             NaN             NaN
             NaN             NaN             NaN
             NaN             NaN             NaN
             NaN             NaN             NaN
             NaN             NaN             NaN
             NaN             NaN             NaN
             NaN             NaN             NaN
             NaN             NaN             NaN
             NaN             NaN             NaN
             NaN             NaN             NaN
             NaN             NaN             NaN
             NaN             NaN             NaN
             NaN             NaN             NaN
             NaN             NaN             NaN
             NaN             NaN             NaN
             NaN             NaN             NaN
             NaN             NaN             NaN
             NaN             NaN             NaN
             NaN             NaN             NaN
             NaN             NaN             NaN
             NaN             NaN             NaN
             NaN             NaN             NaN
             NaN             NaN             NaN
             NaN             NaN             NaN
             NaN             NaN             NaN
             NaN             NaN             NaN
             NaN             NaN             NaN
             NaN             NaN             NaN
             NaN             NaN             NaN
             NaN             NaN             NaN
             NaN             NaN             NaN
             NaN             NaN             NaN
             NaN             NaN             NaN
             NaN             NaN             NaN
             NaN             NaN             NaN
             NaN             NaN             NaN
             NaN             NaN             NaN
             NaN             NaN             NaN
             NaN             NaN             NaN
             NaN             NaN             NaN
             NaN             NaN             NaN
             NaN             NaN             NaN
             NaN             NaN             NaN
             NaN             NaN             NaN
             NaN             NaN             NaN
             NaN             NaN             NaN
             NaN             NaN             NaN
             NaN             NaN             NaN
             NaN             NaN             NaN
             NaN             NaN             NaN
             NaN             NaN             NaN
             NaN             NaN             NaN
             NaN             NaN             NaN
             NaN             NaN             NaN
             NaN             NaN             NaN
             NaN             NaN             NaN
             NaN             NaN             NaN
             NaN             NaN             NaN
             NaN             NaN             NaN
             NaN             NaN             NaN
             NaN             NaN             NaN
             NaN             NaN             NaN
             NaN             NaN             NaN
             NaN             NaN             NaN
             NaN             NaN             NaN
             NaN             NaN             NaN
             NaN             NaN             NaN
             NaN             NaN             NaN
             NaN             NaN             NaN
             NaN             NaN             NaN
             NaN             NaN             NaN
