Al   Hf   N                             
   1.00000000000000     
     9.5360605740943765   -0.0123132593842290    0.0168475300903238
    -4.7577449827531177    8.2624890837906353   -0.0160889218984235
     0.0947430221681223   -0.0556814505266624   10.2681728503613474
   Al   Hf   N 
    34     2    36
Direct
  0.2226047228282108  0.1046109549724697  0.3207725275576410
  0.1088209997647192  0.2239984086876287  0.1375283372995869
  0.8929663858841502  0.1087744637826887  0.8895249393827401
  0.7761522086995802  0.2257054860401149  0.5714424741009511
  0.5586584801919781  0.1097972724244439  0.3166833504028246
  0.4440721849496089  0.2253883766017218  0.0717254829147684
  0.2254303534037703  0.1100902266511717  0.8221307278698240
  0.1042780155584818  0.2212100221995140  0.6385267917098215
  0.8927941290467337  0.1083004874172769  0.3888639117503959
  0.7752853728248366  0.2257786851231092  0.0685239544102852
  0.5585635683405551  0.1129943484795792  0.8249838842198975
  0.4426955532588575  0.2097981406286044  0.5751585280676557
  0.2076603521717589  0.4433555688621569  0.3838870090599038
  0.1110645774119230  0.5530991763461096  0.1322082838250756
  0.8839368151636644  0.4403709981873037  0.8250670750249062
  0.7931281590008614  0.5586364541393177  0.5754139684336543
  0.4382404527628093  0.5631106864479816  0.1349713762007971
  0.2241393202111214  0.4450699356844814  0.8882845153351669
  0.1103413486174073  0.5534839633296891  0.6430945137688108
  0.8859437305580469  0.4393173209678043  0.3179484988687481
  0.7763541911098772  0.5570612559106753  0.0717279278139017
  0.5623627306299449  0.4388434064066884  0.8260160833803191
  0.2251106115749577  0.7832951931800480  0.3167114213952259
  0.1107821279678398  0.8900147969083483  0.0688143701843166
  0.8923764268839249  0.7760092459696142  0.8221359490384642
  0.7814935088104553  0.8972620524919566  0.6394636667844451
  0.5592968352957414  0.7912946758032167  0.3828358862371827
  0.4448762922505531  0.8935813531027879  0.0844647980732078
  0.2246122607386028  0.7838029279216605  0.8281928170604066
  0.1121474667041781  0.8894575248308240  0.5696550323408883
  0.8975710000834223  0.7786737812111614  0.3206929869361911
  0.7773911882911844  0.8923365498611577  0.1381425941396096
  0.5586436652480915  0.7754442965912326  0.8878682837399525
  0.4441983495459883  0.8954923955495463  0.5985424956028372
  0.5509797323712292  0.4503185527738688  0.3531816778967724
  0.4503777320389796  0.5497079931784166  0.6054864219175147
  0.1084317505441290  0.2245236512906216  0.3256665592442531
  0.2257516622122211  0.1083339965389677  0.1309330105679624
  0.7760366191034493  0.2243268401835324  0.8815764436883124
  0.8928429657581788  0.1084016146327017  0.5766568085430012
  0.4347722071799999  0.1967134730691029  0.3883321222411738
  0.5585874766616419  0.1175024827977066  0.1287350863710709
  0.1089700506657820  0.2262577875942491  0.8276003050505226
  0.2248895926083673  0.1077903551843003  0.6332646798260423
  0.7750878388675617  0.2245989459268464  0.3815068448861150
  0.8923992681690546  0.1087401895446941  0.0775321523953457
  0.4433177674129088  0.2211034834098513  0.8849284408177457
  0.5603402156156316  0.1124677798130912  0.6377188352078169
  0.1093928487779607  0.5550470438928088  0.3240082422830769
  0.2205985698457953  0.4423852625553956  0.0741389917406586
  0.7804646133961111  0.5583205130436971  0.8851536973165142
  0.8866010295085097  0.4394630457711513  0.6361634207944653
  0.4218094993091236  0.5782845075847585  0.3208840235080674
  0.5543235815245254  0.4467301813398352  0.1302084017248403
  0.1144948849249270  0.5549105921859220  0.8359679809488687
  0.1953550978026650  0.4335465599502892  0.5700417902450967
  0.8054080239436053  0.5668718594075223  0.3891104411515157
  0.8803449651888511  0.4408081546652780  0.1279674775419326
  0.4458950275431122  0.5550573855956563  0.8283230866717538
  0.5793973248230632  0.4224348820050420  0.6393816402409032
  0.1114890430013653  0.8899972134547341  0.3825269611513965
  0.2219747628506042  0.7822513496744972  0.1232304548804080
  0.7762699243920315  0.8927069481942940  0.8277581553295038
  0.8947249518483902  0.7764837768406099  0.6335642232714006
  0.4431782153893890  0.8939356654391356  0.3558231114848814
  0.5611938281270613  0.7788200618498162  0.0754391285271246
  0.1099889812346162  0.8917589887650759  0.8827811167912444
  0.2228976817778097  0.7828245027516108  0.6332228969954151
  0.7775345702847541  0.8926696244237216  0.3258510863552836
  0.8933248785190891  0.7752712737217462  0.1312239186909759
  0.4449724246495951  0.8915622769187934  0.8719446590674055
  0.5708755563002116  0.8032529019447102  0.5722324580901792
 
             NaN             NaN             NaN
             NaN             NaN             NaN
             NaN             NaN             NaN
             NaN             NaN             NaN
             NaN             NaN             NaN
             NaN             NaN             NaN
             NaN             NaN             NaN
             NaN             NaN             NaN
             NaN             NaN             NaN
             NaN             NaN             NaN
             NaN             NaN             NaN
             NaN             NaN             NaN
             NaN             NaN             NaN
             NaN             NaN             NaN
             NaN             NaN             NaN
             NaN             NaN             NaN
             NaN             NaN             NaN
             NaN             NaN             NaN
             NaN             NaN             NaN
             NaN             NaN             NaN
             NaN             NaN             NaN
             NaN             NaN             NaN
             NaN             NaN             NaN
             NaN             NaN             NaN
             NaN             NaN             NaN
             NaN             NaN             NaN
             NaN             NaN             NaN
             NaN             NaN             NaN
             NaN             NaN             NaN
             NaN             NaN             NaN
             NaN             NaN             NaN
             NaN             NaN             NaN
             NaN             NaN             NaN
             NaN             NaN             NaN
             NaN             NaN             NaN
             NaN             NaN             NaN
             NaN             NaN             NaN
             NaN             NaN             NaN
             NaN             NaN             NaN
             NaN             NaN             NaN
             NaN             NaN             NaN
             NaN             NaN             NaN
             NaN             NaN             NaN
             NaN             NaN             NaN
             NaN             NaN             NaN
             NaN             NaN             NaN
             NaN             NaN             NaN
             NaN             NaN             NaN
             NaN             NaN             NaN
             NaN             NaN             NaN
             NaN             NaN             NaN
             NaN             NaN             NaN
             NaN             NaN             NaN
             NaN             NaN             NaN
             NaN             NaN             NaN
             NaN             NaN             NaN
             NaN             NaN             NaN
             NaN             NaN             NaN
             NaN             NaN             NaN
             NaN             NaN             NaN
             NaN             NaN             NaN
             NaN             NaN             NaN
             NaN             NaN             NaN
             NaN             NaN             NaN
             NaN             NaN             NaN
             NaN             NaN             NaN
             NaN             NaN             NaN
             NaN             NaN             NaN
             NaN             NaN             NaN
             NaN             NaN             NaN
             NaN             NaN             NaN
             NaN             NaN             NaN
