Al   Hf   N                             
   1.00000000000000     
     9.5441377350573511   -0.0089406062650391    0.0170055578376634
    -4.8003642964459807    8.2439727052579546   -0.0246683586329979
     0.0766766623843210   -0.0435512364490425   10.2332572231749612
   Al   Hf   N 
    34     2    36
Direct
  0.2186494379319688  0.1086192376667113  0.3429483579428493
  0.1087858149104792  0.2237106201736616  0.1336099204539719
  0.8883507872703980  0.1115755734071043  0.8880555541732679
  0.7785960176713369  0.2226770932796492  0.6386489936675144
  0.5616473500368021  0.1022629930735248  0.3895130437468065
  0.4417708242805250  0.2264768873985304  0.0686299990920481
  0.2226001873873553  0.1104497517452942  0.8340115525715180
  0.1037614074668061  0.2209337620580380  0.6369183789566635
  0.8885562528257100  0.1100949099011401  0.3872256545809234
  0.7774692779327065  0.2232912613657925  0.1376356023786610
  0.5600508479631453  0.1071685110493947  0.8878969584292155
  0.4425781450508073  0.2125240011098964  0.5757805339416234
  0.2099215980696709  0.4429369409388061  0.3816937705263633
  0.1086668951030613  0.5569719304548369  0.1354086401407546
  0.8932541805574367  0.4415126652701613  0.8884863171503710
  0.7882709822837461  0.5601991691655109  0.5720045123797093
  0.4359214831381051  0.5641659993793517  0.1289618297832723
  0.2236853796265348  0.4444006899871429  0.8852538820369996
  0.1073768982251871  0.5559571421664529  0.6388567494231097
  0.8979300945830661  0.4402161229182794  0.3888225929778699
  0.7749366526354947  0.5596396860796604  0.0690613237901885
  0.5644066387996742  0.4383525082847661  0.8234959804676750
  0.2259661785383409  0.7752035576770936  0.3853581093293671
  0.1084561724876487  0.8918190813068706  0.0667068486756234
  0.8912706219037787  0.7754732958524202  0.8192347679780899
  0.7782073841896174  0.8965032132060882  0.6363273723152818
  0.5586002140344164  0.7903219669495266  0.3813908492335425
  0.4435626026503971  0.8922626418850060  0.1355182244312423
  0.2258107649982342  0.7742527305200781  0.8867155597955426
  0.1076517667267498  0.8890317363423200  0.5715617553421468
  0.8974438969926528  0.7801279823444387  0.3162372896246153
  0.7753619708752905  0.8933359980276557  0.1338875091505934
  0.5567823664976199  0.7765397139386265  0.8847565183347552
  0.4438047444595061  0.8920205521370165  0.6392383077714989
  0.5512937754636881  0.4507186324863995  0.3452617251500200
  0.4504531323723615  0.5484684707934742  0.6036915717211823
  0.1067889601490628  0.2238368276049751  0.3242367118402953
  0.2216486896685050  0.1116157757523361  0.1119812506269686
  0.7790486453390097  0.2224829481343082  0.8267780430383277
  0.8893389656253433  0.1105776162814956  0.5748866267475971
  0.4357558103809765  0.2003959371850046  0.3835244663986959
  0.5594838548006322  0.1110956151723970  0.0776857748954501
  0.1070586736406964  0.2251128784814463  0.8267287675854027
  0.2222043867400910  0.1093783687091358  0.6233955701806946
  0.7794755259958472  0.2216148860158876  0.3267794757895778
  0.8884432437105424  0.1122108184041178  0.0754410567025262
  0.4440376050420224  0.2222691517743197  0.8791815610187901
  0.5619773174542377  0.1049604035376450  0.5790707549016922
  0.1082881427277628  0.5573451660312341  0.3220777505318732
  0.2176731858249667  0.4438868762890478  0.0725700508520169
  0.7797618677096940  0.5603437427357497  0.8816959559266363
  0.8945578879593096  0.4391023733946323  0.5780735639846839
  0.4212627265021894  0.5788826169700212  0.3162853182261403
  0.5539322184232708  0.4479537985861203  0.1258097672425069
  0.1123917717444066  0.5554625067686362  0.8263458745166069
  0.1961897540878753  0.4338137452078586  0.5691439387670874
  0.8022680275858444  0.5692515228541205  0.3822741427016925
  0.8895345882439259  0.4414296339144220  0.0780339521937309
  0.4458212308945766  0.5541166756298402  0.8274374017803875
  0.5812087465592971  0.4214294382163332  0.6398417989161668
  0.1078258449665997  0.8900942437806589  0.3813717335013599
  0.2248279278545604  0.7758663947190196  0.0764244809290329
  0.7756889890339271  0.8931126203788576  0.8265145856519643
  0.8912273532422356  0.7756912346997197  0.6316595335646602
  0.4437232693065879  0.8920993295718550  0.3223121802351542
  0.5568117633131346  0.7824005890036977  0.0720644253957548
  0.1080839149132588  0.8882184249447922  0.8765083226486664
  0.2255290262965717  0.7744105938538106  0.5771723025634673
  0.7765549634727098  0.8930603131290809  0.3232887794617303
  0.8920225289883725  0.7767946966245800  0.1280102193863398
  0.4447078047102098  0.8874051031451355  0.8265429137795748
  0.5657546191506849  0.8027901701961229  0.5690457196515285
 
             NaN             NaN             NaN
             NaN             NaN             NaN
             NaN             NaN             NaN
             NaN             NaN             NaN
             NaN             NaN             NaN
             NaN             NaN             NaN
             NaN             NaN             NaN
             NaN             NaN             NaN
             NaN             NaN             NaN
             NaN             NaN             NaN
             NaN             NaN             NaN
             NaN             NaN             NaN
             NaN             NaN             NaN
             NaN             NaN             NaN
             NaN             NaN             NaN
             NaN             NaN             NaN
             NaN             NaN             NaN
             NaN             NaN             NaN
             NaN             NaN             NaN
             NaN             NaN             NaN
             NaN             NaN             NaN
             NaN             NaN             NaN
             NaN             NaN             NaN
             NaN             NaN             NaN
             NaN             NaN             NaN
             NaN             NaN             NaN
             NaN             NaN             NaN
             NaN             NaN             NaN
             NaN             NaN             NaN
             NaN             NaN             NaN
             NaN             NaN             NaN
             NaN             NaN             NaN
             NaN             NaN             NaN
             NaN             NaN             NaN
             NaN             NaN             NaN
             NaN             NaN             NaN
             NaN             NaN             NaN
             NaN             NaN             NaN
             NaN             NaN             NaN
             NaN             NaN             NaN
             NaN             NaN             NaN
             NaN             NaN             NaN
             NaN             NaN             NaN
             NaN             NaN             NaN
             NaN             NaN             NaN
             NaN             NaN             NaN
             NaN             NaN             NaN
             NaN             NaN             NaN
             NaN             NaN             NaN
             NaN             NaN             NaN
             NaN             NaN             NaN
             NaN             NaN             NaN
             NaN             NaN             NaN
             NaN             NaN             NaN
             NaN             NaN             NaN
             NaN             NaN             NaN
             NaN             NaN             NaN
             NaN             NaN             NaN
             NaN             NaN             NaN
             NaN             NaN             NaN
             NaN             NaN             NaN
             NaN             NaN             NaN
             NaN             NaN             NaN
             NaN             NaN             NaN
             NaN             NaN             NaN
             NaN             NaN             NaN
             NaN             NaN             NaN
             NaN             NaN             NaN
             NaN             NaN             NaN
             NaN             NaN             NaN
             NaN             NaN             NaN
             NaN             NaN             NaN
