Al   Hf   N                             
   1.00000000000000     
     9.5207878530618011   -0.0134010317518182    0.0136914644892808
    -4.7529686616983540    8.2495512390389045   -0.0135625241714778
     0.0869155730365460   -0.0505022241182045   10.2984007652250451
   Al   Hf   N 
    34     2    36
Direct
  0.2215111474462018  0.1042062884537558  0.3194769308632130
  0.1085822669021933  0.2252896819092880  0.1372033119998239
  0.8923361274986595  0.1086776966902150  0.8885218466559573
  0.7769237383486622  0.2240906889245488  0.5866359367645175
  0.5597626167884844  0.1133453391127787  0.3149213850244200
  0.4436326770344137  0.2242703224852284  0.0702587976795183
  0.2243738308344303  0.1088713522812170  0.8206086977973502
  0.1049344156686017  0.2226804080090837  0.6380089452912612
  0.8905491996362120  0.1104648137807337  0.3880210820100398
  0.7759281719710989  0.2250860239128115  0.0717360052715976
  0.5570616688540155  0.1137987348590787  0.8255749893222580
  0.4431092730139239  0.2079676896449122  0.5740093937205174
  0.2077403331175788  0.4429936872826052  0.3826443188984452
  0.1164330184314773  0.5606576935367206  0.1343243913949920
  0.8872159628688858  0.4439529010044858  0.8255751434906941
  0.7930461317771064  0.5579048135032889  0.5740094348833062
  0.4386261773636767  0.5623880849748163  0.1330101532526219
  0.2248596419469849  0.4447669268782139  0.8866961515486802
  0.1150093036899603  0.5611175054576930  0.6415828263210404
  0.8876690939958973  0.4412516956611202  0.3149214060233843
  0.7767434796012056  0.5573812410184947  0.0702588301781388
  0.5625943157225268  0.4384196604268672  0.8242010292215581
  0.2252572609425030  0.7757571544745355  0.3863735101029061
  0.1078709013151886  0.8931431168900534  0.0686998956623463
  0.8921423364228032  0.7766399824467364  0.8206086657278678
  0.7783336960543891  0.8960798632632604  0.6380089161728194
  0.5580201440434588  0.7932736034083168  0.3826444443572413
  0.4403566577942806  0.8845811272373095  0.1343245288486892
  0.2255049993280956  0.7755093665001481  0.8901387111758555
  0.1080687515299256  0.8929453077871855  0.5689174725722548
  0.8968078652253003  0.7795030284738651  0.3194769135361997
  0.7757243927192590  0.8924318405642366  0.1372033372953662
  0.5562468327135816  0.7761542210865502  0.8866961011008062
  0.4398968778856315  0.8860048477890743  0.6415830127513895
  0.5512117728664927  0.4498021047262432  0.3523200444160279
  0.4508365623423276  0.5501775199026594  0.6036003262674051
  0.1076036057513817  0.2250164450475017  0.3247642997978022
  0.2256449843489979  0.1089403202330516  0.1310344129349381
  0.7765959238447177  0.2244190317603180  0.8779022524736632
  0.8924096125381148  0.1086042445899859  0.5767062413993537
  0.4336810457676072  0.1947137476887389  0.3880767595652623
  0.5568467386493583  0.1165677402431525  0.1249683882865459
  0.1085790278128164  0.2264869791128383  0.8263218634657175
  0.2251384850233791  0.1083320753508968  0.6330301830881919
  0.7764928852159962  0.2245220492305025  0.3712721229225732
  0.8927335455535788  0.1082801660667869  0.0757758085711971
  0.4419009379045400  0.2202523863160997  0.8844563794148812
  0.5583722840149186  0.1116314092305494  0.6372709107413870
  0.1135037944616599  0.5613493308435907  0.3215964592462840
  0.2203007395001632  0.4432204336439568  0.0730320329568726
  0.7807618900053720  0.5591133169563850  0.8844564245653976
  0.8893824327282114  0.4426419254678470  0.6372709289974592
  0.4226717889574607  0.5783423295610448  0.3198186176588458
  0.5547415891301465  0.4462724133593103  0.1294215665819180
  0.1194935300055368  0.5599294472164358  0.8301502909270437
  0.1953106905292405  0.4342230355220536  0.5687702088088865
  0.8063008567436353  0.5673334311142456  0.3880767154388209
  0.8844462185556980  0.4441674010129456  0.1249683304250101
  0.4465933922976679  0.5544203475558829  0.8272735148958125
  0.5792158168961180  0.4217980298785574  0.6379299649259069
  0.1079967078510840  0.8930178006906050  0.3820789261534339
  0.2242597028701057  0.7767542592940531  0.0761982871103980
  0.7745267865250750  0.8924348148688745  0.8263218283297293
  0.8926819320954742  0.7758755909367007  0.6330301392972167
  0.4396652633193378  0.8875109485212812  0.3215964794816190
  0.5577934368547912  0.7807130486828583  0.0730320164539745
  0.1081912408835373  0.8928228304493968  0.8811647559491800
  0.2251783158907605  0.7758355717743280  0.5763103256217568
  0.7759975111652637  0.8934103851565969  0.3247643308193792
  0.8920736208215573  0.7753689877650827  0.1310344282223259
  0.4410851297084611  0.8815213327498401  0.8301503666034237
  0.5667906940435884  0.8057028379008436  0.5687702342757861
 
             NaN             NaN             NaN
             NaN             NaN             NaN
             NaN             NaN             NaN
             NaN             NaN             NaN
             NaN             NaN             NaN
             NaN             NaN             NaN
             NaN             NaN             NaN
             NaN             NaN             NaN
             NaN             NaN             NaN
             NaN             NaN             NaN
             NaN             NaN             NaN
             NaN             NaN             NaN
             NaN             NaN             NaN
             NaN             NaN             NaN
             NaN             NaN             NaN
             NaN             NaN             NaN
             NaN             NaN             NaN
             NaN             NaN             NaN
             NaN             NaN             NaN
             NaN             NaN             NaN
             NaN             NaN             NaN
             NaN             NaN             NaN
             NaN             NaN             NaN
             NaN             NaN             NaN
             NaN             NaN             NaN
             NaN             NaN             NaN
             NaN             NaN             NaN
             NaN             NaN             NaN
             NaN             NaN             NaN
             NaN             NaN             NaN
             NaN             NaN             NaN
             NaN             NaN             NaN
             NaN             NaN             NaN
             NaN             NaN             NaN
             NaN             NaN             NaN
             NaN             NaN             NaN
             NaN             NaN             NaN
             NaN             NaN             NaN
             NaN             NaN             NaN
             NaN             NaN             NaN
             NaN             NaN             NaN
             NaN             NaN             NaN
             NaN             NaN             NaN
             NaN             NaN             NaN
             NaN             NaN             NaN
             NaN             NaN             NaN
             NaN             NaN             NaN
             NaN             NaN             NaN
             NaN             NaN             NaN
             NaN             NaN             NaN
             NaN             NaN             NaN
             NaN             NaN             NaN
             NaN             NaN             NaN
             NaN             NaN             NaN
             NaN             NaN             NaN
             NaN             NaN             NaN
             NaN             NaN             NaN
             NaN             NaN             NaN
             NaN             NaN             NaN
             NaN             NaN             NaN
             NaN             NaN             NaN
             NaN             NaN             NaN
             NaN             NaN             NaN
             NaN             NaN             NaN
             NaN             NaN             NaN
             NaN             NaN             NaN
             NaN             NaN             NaN
             NaN             NaN             NaN
             NaN             NaN             NaN
             NaN             NaN             NaN
             NaN             NaN             NaN
             NaN             NaN             NaN
