Al   Hf   N                             
   1.00000000000000     
     9.5602086600033491    0.0061888342109164    0.0101230476690361
    -4.8177539078435947    8.2321262331024254   -0.0285963008412586
     0.0890696388796149   -0.0394925979408262   10.2071001790091493
   Al   Hf   N 
    34     2    36
Direct
  0.2129372244212571  0.1064558062346175  0.3893254644643090
  0.1089189509401744  0.2221282945716080  0.1342118372779920
  0.8886849400440078  0.1121357364291806  0.8872778630629046
  0.7787147722955698  0.2230905960698209  0.6380717518654982
  0.5619647331915317  0.1019889744118144  0.3879311622751336
  0.4461609319202049  0.2282358433609029  0.0687062554704337
  0.2161007075604245  0.1093048980714215  0.8844164328973365
  0.1038174643564449  0.2189540016944008  0.6364536826016114
  0.8894649429549421  0.1105981104510743  0.3864160192916426
  0.7780605937861500  0.2236537612393666  0.1374023338316775
  0.5600395381963079  0.1070118038550393  0.8864655619178234
  0.4451077034857302  0.2139477826113548  0.5740016423620723
  0.2097971683734821  0.4420364396806752  0.3806006013703024
  0.1084809195244599  0.5563202419350344  0.1348128332961495
  0.8937706766755803  0.4418445563916109  0.8877348465952718
  0.7887383640963153  0.5611729291759646  0.5708625677652372
  0.4353872781363709  0.5637485485760096  0.1286893351310952
  0.2238594488744689  0.4444092426357177  0.8837814001930611
  0.1073553121832717  0.5557044662741674  0.6379452170522562
  0.8986725459924657  0.4406888524267741  0.3882154766505917
  0.7751366837339501  0.5601943100745642  0.0678825255548630
  0.5634679946530186  0.4371446505939990  0.8226223605187357
  0.2231892448171523  0.7791525924454946  0.3843579819302215
  0.1183204951749296  0.8934298695281786  0.1315981492930592
  0.8864670147186612  0.7739772431046378  0.8210284959618902
  0.7777774439034687  0.8967057222960128  0.6351163207253553
  0.5576259548632884  0.7897636574534888  0.3809001325187481
  0.4444455687764092  0.8917292764285530  0.1353855128561186
  0.2235360162806277  0.7780183574340506  0.8865219017064654
  0.1166684844105282  0.8903060558568896  0.6363147632666767
  0.8926314761383847  0.7785450977492402  0.3171179037611153
  0.7748266566968831  0.8932381338294964  0.1323007626387694
  0.5555292846129649  0.7762523357230262  0.8842756055282209
  0.4442314066934504  0.8918953458249036  0.6387760915439475
  0.5505591446742271  0.4491745499261728  0.3441391571066921
  0.4504336878414450  0.5482820067845160  0.6025697853370525
  0.1097863069638453  0.2205012108517414  0.3231593075002380
  0.2153649517065329  0.1107157201908892  0.0756298392413940
  0.7797295154721920  0.2226103688465674  0.8265600497257034
  0.8887056169615934  0.1114309527475350  0.5748919262068363
  0.4383417310826591  0.2002453549881277  0.3787224992415446
  0.5595973530586632  0.1107423923372940  0.0779503841169195
  0.1095945879887207  0.2220863928366643  0.8250879195459453
  0.2139300540753310  0.1082925049688019  0.5815240926531436
  0.7806160765520769  0.2217563730212352  0.3266377315202669
  0.8885270035639553  0.1130021190244586  0.0753175863443706
  0.4460751420525101  0.2221542098732539  0.8769936125304475
  0.5615870857679789  0.1048880573830660  0.5791038652269924
  0.1091019455718185  0.5576226547384441  0.3221260307047313
  0.2172074747198200  0.4432668373892423  0.0721627187458125
  0.7793955508116862  0.5592542573539637  0.8805530275632594
  0.8945583271598525  0.4398226059121117  0.5779938370053156
  0.4211016256536724  0.5779543888840413  0.3162115341257671
  0.5534064270808071  0.4478886793104577  0.1246621859509869
  0.1131073247730679  0.5562128929289333  0.8263582137567078
  0.1960024083496283  0.4334411409561104  0.5690364997163001
  0.8023122018234525  0.5689258050293536  0.3813319693163791
  0.8894909383575762  0.4418811323190350  0.0778140127595855
  0.4459995934873107  0.5538350726996404  0.8270924972310495
  0.5809543720399459  0.4216259821593958  0.6386950303356378
  0.1186544049971498  0.8929301857274278  0.3267033330766362
  0.2235359863018397  0.7782903273180192  0.0749715368844958
  0.7749260719372039  0.8934314179462274  0.8270460214576580
  0.8870876349871289  0.7752983648392446  0.6287363695501776
  0.4436281579999136  0.8910084911945889  0.3223675316212811
  0.5557709148008241  0.7819500693644096  0.0718969801500193
  0.1172301498960632  0.8901470992639587  0.8291977024128669
  0.2234012211788982  0.7775936693027803  0.5756287696718193
  0.7758878389392911  0.8931815708878229  0.3233954696075360
  0.8880179570922219  0.7763300984554052  0.1237249354135197
  0.4443060847845978  0.8866575764795810  0.8265938092873683
  0.5649409884932233  0.8025127338603802  0.5688913370559074
 
             NaN             NaN             NaN
             NaN             NaN             NaN
             NaN             NaN             NaN
             NaN             NaN             NaN
             NaN             NaN             NaN
             NaN             NaN             NaN
             NaN             NaN             NaN
             NaN             NaN             NaN
             NaN             NaN             NaN
             NaN             NaN             NaN
             NaN             NaN             NaN
             NaN             NaN             NaN
             NaN             NaN             NaN
             NaN             NaN             NaN
             NaN             NaN             NaN
             NaN             NaN             NaN
             NaN             NaN             NaN
             NaN             NaN             NaN
             NaN             NaN             NaN
             NaN             NaN             NaN
             NaN             NaN             NaN
             NaN             NaN             NaN
             NaN             NaN             NaN
             NaN             NaN             NaN
             NaN             NaN             NaN
             NaN             NaN             NaN
             NaN             NaN             NaN
             NaN             NaN             NaN
             NaN             NaN             NaN
             NaN             NaN             NaN
             NaN             NaN             NaN
             NaN             NaN             NaN
             NaN             NaN             NaN
             NaN             NaN             NaN
             NaN             NaN             NaN
             NaN             NaN             NaN
             NaN             NaN             NaN
             NaN             NaN             NaN
             NaN             NaN             NaN
             NaN             NaN             NaN
             NaN             NaN             NaN
             NaN             NaN             NaN
             NaN             NaN             NaN
             NaN             NaN             NaN
             NaN             NaN             NaN
             NaN             NaN             NaN
             NaN             NaN             NaN
             NaN             NaN             NaN
             NaN             NaN             NaN
             NaN             NaN             NaN
             NaN             NaN             NaN
             NaN             NaN             NaN
             NaN             NaN             NaN
             NaN             NaN             NaN
             NaN             NaN             NaN
             NaN             NaN             NaN
             NaN             NaN             NaN
             NaN             NaN             NaN
             NaN             NaN             NaN
             NaN             NaN             NaN
             NaN             NaN             NaN
             NaN             NaN             NaN
             NaN             NaN             NaN
             NaN             NaN             NaN
             NaN             NaN             NaN
             NaN             NaN             NaN
             NaN             NaN             NaN
             NaN             NaN             NaN
             NaN             NaN             NaN
             NaN             NaN             NaN
             NaN             NaN             NaN
             NaN             NaN             NaN
