Al   Hf   N                             
   1.00000000000000     
     9.5431411870755127   -0.0094623111090376    0.0172428857745126
    -4.7998526630475196    8.2432699131312255   -0.0245329123499545
     0.0768092499637247   -0.0434777529555936   10.2341052856692887
   Al   Hf   N 
    34     2    36
Direct
  0.2189221879035482  0.1080601236069194  0.3387445728759382
  0.1086257474134488  0.2239034391610017  0.1336741172452003
  0.8883982939563728  0.1115875139962181  0.8880316326427382
  0.7785633329187843  0.2226768277377409  0.6386632836998161
  0.5615541158262480  0.1023079475922699  0.3895584540012170
  0.4416191433868800  0.2263873885047393  0.0686338699738592
  0.2228610507123301  0.1101613547657719  0.8310782186395048
  0.1037202792677189  0.2210518269191340  0.6369000789015629
  0.8886402447339915  0.1101256933279777  0.3872391401535401
  0.7774445521935467  0.2232908159300520  0.1376646054592337
  0.5599789269562971  0.1071821614841484  0.8879435895339686
  0.4423386979244857  0.2124325318853981  0.5756367283857622
  0.2098769884756962  0.4428923946681138  0.3817122071912495
  0.1086674162795392  0.5569976025247864  0.1354335742017125
  0.8932540698210089  0.4415090772741174  0.8884942539305684
  0.7882917888951396  0.5602149313707719  0.5720515814201639
  0.4359595515727550  0.5641683355910583  0.1289920526418524
  0.2236760931430393  0.4443460836631933  0.8852366747002210
  0.1073867321210518  0.5560019517599869  0.6388775699707915
  0.8979295838197309  0.4402043833108631  0.3888354566223388
  0.7749414881839006  0.5596379760753293  0.0690855112913973
  0.5643323715280048  0.4382845583531305  0.8235660554743572
  0.2259326594289133  0.7752318782722540  0.3854137715313757
  0.1085559946654593  0.8919754034474965  0.0666851102755047
  0.8913249681348492  0.7755403607198580  0.8193029772571361
  0.7782075010430883  0.8964838397101232  0.6363469317023230
  0.5585952154284420  0.7903445327632140  0.3814054312884562
  0.4435700445256477  0.8922527496577981  0.1355256930368059
  0.2257983704729744  0.7743074662880135  0.8867649843164898
  0.1078191273309485  0.8893597545243972  0.5713910975301799
  0.8974513766360540  0.7801403827840744  0.3163131726097503
  0.7753490590840173  0.8933042181070383  0.1339125052609989
  0.5567686558554956  0.7765404140068188  0.8847559950569579
  0.4438111089070805  0.8920376801347607  0.6392334213014050
  0.5512515333874012  0.4506727163520560  0.3453731085972284
  0.4505126134765563  0.5484905645193558  0.6037340734751603
  0.1067177902196174  0.2239620632832139  0.3242694287138307
  0.2219738839701480  0.1112556686812273  0.1151100228564744
  0.7789882734820539  0.2224769930143562  0.8267881328660386
  0.8893697082783807  0.1105594431212118  0.5748889830203390
  0.4352760247306084  0.2002466012570408  0.3837648112629643
  0.5594670990192808  0.1111006938114999  0.0776925119663378
  0.1070346950128417  0.2251317344691049  0.8268159082436400
  0.2225015249103528  0.1091123542426087  0.6255661544710025
  0.7794087196291053  0.2216030620845804  0.3267833292037085
  0.8884634277833864  0.1121785860211722  0.0754092030994851
  0.4435736734158629  0.2221078242083355  0.8794695186611974
  0.5619573681509582  0.1049910397634382  0.5790677107726672
  0.1083017320520345  0.5573922267254542  0.3220788965090344
  0.2177124843895094  0.4438753768682551  0.0725431651586942
  0.7797587544240967  0.5603494267376212  0.8817265369583596
  0.8945762813634619  0.4391000187406347  0.5780725932183833
  0.4212741853178749  0.5788621574596232  0.3163020317674407
  0.5538982227371455  0.4478954442800580  0.1258503480253157
  0.1123981348592210  0.5555190257306860  0.8263569117177358
  0.1962225069237834  0.4338448721902094  0.5691530776423822
  0.8022702553190852  0.5692502290926597  0.3823064453795204
  0.8895468059818660  0.4414216458141579  0.0780347057184044
  0.4458256585488238  0.5541264417818608  0.8274558300681898
  0.5811924693038637  0.4213290370256408  0.6399139549205505
  0.1079146636689627  0.8904000961171232  0.3815016358917571
  0.2248297013360493  0.7758831741720502  0.0764264107545528
  0.7756717913963526  0.8931070417907789  0.8265143205102164
  0.8913574721492818  0.7757691429565852  0.6317015371745192
  0.4436954230804167  0.8921235497919642  0.3223012258497833
  0.5568131009511507  0.7823991696639072  0.0720619581664902
  0.1082261875047538  0.8886360593123116  0.8767997311863904
  0.2255190719518266  0.7744553670225484  0.5771712950557224
  0.7765443635979375  0.8930612869520906  0.3232796144139774
  0.8920883551199138  0.7768327007304336  0.1280399592612139
  0.4446863725563178  0.8874296415667329  0.8265399631812633
  0.5657755094524827  0.8028339907679646  0.5690319637353053
 
             NaN             NaN             NaN
             NaN             NaN             NaN
             NaN             NaN             NaN
             NaN             NaN             NaN
             NaN             NaN             NaN
             NaN             NaN             NaN
             NaN             NaN             NaN
             NaN             NaN             NaN
             NaN             NaN             NaN
             NaN             NaN             NaN
             NaN             NaN             NaN
             NaN             NaN             NaN
             NaN             NaN             NaN
             NaN             NaN             NaN
             NaN             NaN             NaN
             NaN             NaN             NaN
             NaN             NaN             NaN
             NaN             NaN             NaN
             NaN             NaN             NaN
             NaN             NaN             NaN
             NaN             NaN             NaN
             NaN             NaN             NaN
             NaN             NaN             NaN
             NaN             NaN             NaN
             NaN             NaN             NaN
             NaN             NaN             NaN
             NaN             NaN             NaN
             NaN             NaN             NaN
             NaN             NaN             NaN
             NaN             NaN             NaN
             NaN             NaN             NaN
             NaN             NaN             NaN
             NaN             NaN             NaN
             NaN             NaN             NaN
             NaN             NaN             NaN
             NaN             NaN             NaN
             NaN             NaN             NaN
             NaN             NaN             NaN
             NaN             NaN             NaN
             NaN             NaN             NaN
             NaN             NaN             NaN
             NaN             NaN             NaN
             NaN             NaN             NaN
             NaN             NaN             NaN
             NaN             NaN             NaN
             NaN             NaN             NaN
             NaN             NaN             NaN
             NaN             NaN             NaN
             NaN             NaN             NaN
             NaN             NaN             NaN
             NaN             NaN             NaN
             NaN             NaN             NaN
             NaN             NaN             NaN
             NaN             NaN             NaN
             NaN             NaN             NaN
             NaN             NaN             NaN
             NaN             NaN             NaN
             NaN             NaN             NaN
             NaN             NaN             NaN
             NaN             NaN             NaN
             NaN             NaN             NaN
             NaN             NaN             NaN
             NaN             NaN             NaN
             NaN             NaN             NaN
             NaN             NaN             NaN
             NaN             NaN             NaN
             NaN             NaN             NaN
             NaN             NaN             NaN
             NaN             NaN             NaN
             NaN             NaN             NaN
             NaN             NaN             NaN
             NaN             NaN             NaN
