Al   Hf   N                             
   1.00000000000000     
     9.5353674630646807   -0.0132809789173806    0.0152719001585875
    -4.7527445116123488    8.2658873129519908   -0.0146922173461347
     0.0944380073198656   -0.0557146604828338   10.2743299607449448
   Al   Hf   N 
    34     2    36
Direct
  0.2226258148031854  0.1046432380585244  0.3205330758081845
  0.1088104460348673  0.2239118953148735  0.1374608303115931
  0.8929542792731957  0.1085359994928187  0.8893663308514973
  0.7759420072496401  0.2256096390206889  0.5713160251873396
  0.5607638866069750  0.1134944986583342  0.3166929082564459
  0.4440960027531529  0.2253885633368521  0.0713593387559342
  0.2254052951817022  0.1101083980180000  0.8217716130931966
  0.1042736484013215  0.2211148746792307  0.6385267949343020
  0.8928780832857368  0.1081159942749035  0.3888891816965021
  0.7755219701418875  0.2260565559522218  0.0680709032196448
  0.5603634887055643  0.1164033910255379  0.8251976006098346
  0.4428092361219153  0.2090585140870682  0.5751692487864077
  0.2078096521405783  0.4432166430425375  0.3839415429458071
  0.1107039403299510  0.5527801299682021  0.1314768023763568
  0.8839387635716462  0.4403640548153468  0.8247371105492070
  0.7930886798000896  0.5586111733309134  0.5754363151803513
  0.4382070909948497  0.5628118745750387  0.1345995575798463
  0.2242584045219670  0.4449539197664725  0.8881956005025085
  0.1101383775796952  0.5535864460475379  0.6425402821689647
  0.8859491627002537  0.4394056767446215  0.3177284327742642
  0.7763545684676056  0.5570142822536820  0.0716362262494009
  0.5622422871597854  0.4392286767401535  0.8256887246202719
  0.2220994894847513  0.7817284928160159  0.3173311319964014
  0.1108721727694893  0.8900905256037861  0.0684144306499016
  0.8919153141443668  0.7760219870536970  0.8218280701005308
  0.7810014758647270  0.8971249962653745  0.6387992895419637
  0.5582481597426840  0.7927356853177160  0.3831873005588757
  0.4473744163486214  0.8911481189121572  0.1205381514181959
  0.2215625015620326  0.7819088851692406  0.8293666087751380
  0.1125481171101666  0.8892039369372055  0.5696482779431997
  0.8972273558194964  0.7786783916768441  0.3205898990569798
  0.7775812945852622  0.8923468801125187  0.1377977958579386
  0.5573623647430616  0.7766247932074191  0.8879476897602553
  0.4471595873258969  0.8923264483502973  0.6347828970979144
  0.5509179369765749  0.4504843527105362  0.3534254155446873
  0.4504181395526737  0.5503613466962903  0.6050492351719241
  0.1084619587218659  0.2244872185881779  0.3255871759842169
  0.2258308436507831  0.1082657184513171  0.1309327044708333
  0.7766822936646764  0.2246975463470219  0.8816363146001899
  0.8929167318049587  0.1083822007476709  0.5764776506221480
  0.4346204951708624  0.1961218483549687  0.3885407474744790
  0.5599835300909551  0.1204852036060252  0.1272262408930282
  0.1089391542883352  0.2261781267099110  0.8275634712403204
  0.2249069588107568  0.1077179784114835  0.6331177255857668
  0.7755672154217235  0.2248352494987618  0.3814925346874503
  0.8924233705937691  0.1086693963701636  0.0774265282772247
  0.4431391432244635  0.2212870310931634  0.8848556080236495
  0.5617654251135381  0.1148808185469576  0.6365361938522167
  0.1093378352463821  0.5547652359733921  0.3239021192975647
  0.2205484234817418  0.4421330590654936  0.0741060424491375
  0.7804362474628807  0.5582724780858709  0.8850503101080426
  0.8865160018687859  0.4393629803700703  0.6360660705851301
  0.4219783883355099  0.5784327344409785  0.3210035129738616
  0.5543385338944345  0.4469734107437429  0.1302244094761375
  0.1140088220212037  0.5542016001100091  0.8360642778712198
  0.1953701685032883  0.4333110698644399  0.5699934107502310
  0.8054354575555658  0.5669350322876561  0.3890163223143109
  0.8803992055914756  0.4408244829347136  0.1280161138117261
  0.4459357350034791  0.5552391392042489  0.8283850790198014
  0.5790514305119954  0.4227538596292242  0.6389741444344116
  0.1115628171562882  0.8901364825980614  0.3823569320970402
  0.2199565684485103  0.7807673235001161  0.1205389147165205
  0.7758742160138349  0.8925248247439147  0.8275432961070741
  0.8943611584495283  0.7765306635026616  0.6332760023354417
  0.4463332507583680  0.8920480753179340  0.3277049279797914
  0.5601256957459360  0.7798215209930562  0.0741249434287674
  0.1096808916030088  0.8920168334414617  0.8826431679559333
  0.2209799253378235  0.7814458750629907  0.6310230136790794
  0.7771811319785564  0.8925007081829619  0.3257574937654034
  0.8931693518335841  0.7752789411605054  0.1311166959493637
  0.4470972601063144  0.8889092790318993  0.8444534917172386
  0.5689495006356174  0.8052489236224091  0.5702969879204377
 
             NaN             NaN             NaN
             NaN             NaN             NaN
             NaN             NaN             NaN
             NaN             NaN             NaN
             NaN             NaN             NaN
             NaN             NaN             NaN
             NaN             NaN             NaN
             NaN             NaN             NaN
             NaN             NaN             NaN
             NaN             NaN             NaN
             NaN             NaN             NaN
             NaN             NaN             NaN
             NaN             NaN             NaN
             NaN             NaN             NaN
             NaN             NaN             NaN
             NaN             NaN             NaN
             NaN             NaN             NaN
             NaN             NaN             NaN
             NaN             NaN             NaN
             NaN             NaN             NaN
             NaN             NaN             NaN
             NaN             NaN             NaN
             NaN             NaN             NaN
             NaN             NaN             NaN
             NaN             NaN             NaN
             NaN             NaN             NaN
             NaN             NaN             NaN
             NaN             NaN             NaN
             NaN             NaN             NaN
             NaN             NaN             NaN
             NaN             NaN             NaN
             NaN             NaN             NaN
             NaN             NaN             NaN
             NaN             NaN             NaN
             NaN             NaN             NaN
             NaN             NaN             NaN
             NaN             NaN             NaN
             NaN             NaN             NaN
             NaN             NaN             NaN
             NaN             NaN             NaN
             NaN             NaN             NaN
             NaN             NaN             NaN
             NaN             NaN             NaN
             NaN             NaN             NaN
             NaN             NaN             NaN
             NaN             NaN             NaN
             NaN             NaN             NaN
             NaN             NaN             NaN
             NaN             NaN             NaN
             NaN             NaN             NaN
             NaN             NaN             NaN
             NaN             NaN             NaN
             NaN             NaN             NaN
             NaN             NaN             NaN
             NaN             NaN             NaN
             NaN             NaN             NaN
             NaN             NaN             NaN
             NaN             NaN             NaN
             NaN             NaN             NaN
             NaN             NaN             NaN
             NaN             NaN             NaN
             NaN             NaN             NaN
             NaN             NaN             NaN
             NaN             NaN             NaN
             NaN             NaN             NaN
             NaN             NaN             NaN
             NaN             NaN             NaN
             NaN             NaN             NaN
             NaN             NaN             NaN
             NaN             NaN             NaN
             NaN             NaN             NaN
             NaN             NaN             NaN
