Al   Hf   N                             
   1.00000000000000     
     9.5476086384728660   -0.0063320820450468    0.0158189181534173
    -4.8019766500681120    8.2464383898356104   -0.0253455900482153
     0.0762439981449517   -0.0438275062095482   10.2316457403733327
   Al   Hf   N 
    34     2    36
Direct
  0.2174145501986160  0.1112618881532662  0.3648006778346646
  0.1093267468578349  0.2230347424641438  0.1335874266956483
  0.8881567090742311  0.1115048981704496  0.8880358124878076
  0.7787321230787078  0.2226722115924139  0.6385625253901606
  0.5619404199656903  0.1021615421449216  0.3892312690886068
  0.4429789524276251  0.2271163480874192  0.0687636276397004
  0.2210765365088802  0.1121198693894623  0.8531645039528185
  0.1039892664360146  0.2203470512639342  0.6370089260529594
  0.8884191848548174  0.1100040411187066  0.3870712177159686
  0.7776021116944601  0.2233079990666941  0.1375801047997161
  0.5603090502618844  0.1071092545543408  0.8876195737929228
  0.4438303084030276  0.2130736948801083  0.5761803089313516
  0.2100654541548805  0.4429410074011287  0.3815332927973262
  0.1086475062501201  0.5568298157626155  0.1353678177448381
  0.8932435622550164  0.4415367248947069  0.8884400552823776
  0.7881482989148960  0.5601196955711798  0.5717770496499224
  0.4357681538402530  0.5641926499712713  0.1288907107520883
  0.2237559530570095  0.4446294344961981  0.8852018223197937
  0.1073437494072700  0.5557662728962913  0.6387467914518790
  0.8979279939437128  0.4402614539456097  0.3887672021736194
  0.7749109784979887  0.5596448687604652  0.0689415306554996
  0.5646506492244154  0.4385696903856858  0.8232015563362285
  0.2260143133940126  0.7752036723171674  0.3850217411721022
  0.1077545302719440  0.8905680371459893  0.0669379393502858
  0.8911251136230169  0.7752621333094187  0.8189311128495457
  0.7782045457580642  0.8965984412945039  0.6362364080022145
  0.5586166395467626  0.7902387914719970  0.3813325056346503
  0.4435800074341826  0.8922600513350296  0.1355582342137732
  0.2258665752130802  0.7740734016951166  0.8864151435906742
  0.1067372868924742  0.8873291473626904  0.5719929090730349
  0.8975975109535799  0.7801763214638616  0.3160144242546053
  0.7753677404871528  0.8934520888316630  0.1338426649420730
  0.5568370958608240  0.7765280677861289  0.8847479448709412
  0.4437771706227243  0.8919462935085700  0.6392549117036215
  0.5513462893451088  0.4507290248207669  0.3448169459658678
  0.4502287509898913  0.5483970672425147  0.6034921740671640
  0.1074801992437521  0.2230100115302161  0.3237069315753152
  0.2200623712609344  0.1132701179754842  0.0960301740261900
  0.7793203904215035  0.2225103289483447  0.8267360746666004
  0.8892113154809830  0.1106667889375133  0.5748707935456389
  0.4377812673932857  0.2009970313561840  0.3818870224046091
  0.5595255988291987  0.1110407248569749  0.0776586952328954
  0.1074565357204227  0.2247493623681310  0.8260554292004408
  0.2204695134456454  0.1108785547149044  0.6089030334440171
  0.7798084862065054  0.2216417511896717  0.3267492287924622
  0.8884155056409587  0.1123293650809864  0.0754828116075061
  0.4460362262518537  0.2229205968004810  0.8778312471116869
  0.5620168874715683  0.1048267302776124  0.5790965399184954
  0.1082405914806502  0.5571039849268827  0.3220584901562716
  0.2175213911414129  0.4438753423161012  0.0725893271522930
  0.7797650976490166  0.5603412771464730  0.8815945968326713
  0.8944772677435885  0.4391159899586210  0.5780852649222333
  0.4212192899357163  0.5789573718468090  0.3161992792034137
  0.5540154632143781  0.4481587063580738  0.1256178506980031
  0.1123623464162830  0.5552080014874210  0.8263017549537419
  0.1960381155521305  0.4336528273395836  0.5690925084240589
  0.8022100989155393  0.5692225939156730  0.3821471783574079
  0.8894842662107935  0.4414584675436763  0.0780132381031131
  0.4458133637837151  0.5540904073682378  0.8273761843117544
  0.5812515761160761  0.4218144159576743  0.6396208492028272
  0.1076346323199152  0.8888773387903562  0.3802386513141503
  0.2248476039421887  0.7758237546499128  0.0764145123149273
  0.7757495512409205  0.8931278420640905  0.8265072386624821
  0.8906991116657070  0.7753789702979340  0.6315126700168602
  0.4438638534967537  0.8919804740576146  0.3223357856832893
  0.5568067960439196  0.7824027269534218  0.0720536914319123
  0.1075320417301340  0.8864665775452264  0.8751157945335645
  0.2255713596352925  0.7742450375503829  0.5772083588531122
  0.7765702585584071  0.8930296367134722  0.3232968333132610
  0.8917302978836049  0.7766629921996512  0.1278810119830829
  0.4448068210822365  0.8872968171543464  0.8265616601621432
  0.5656752551741070  0.8026294553045688  0.5691017542508207
 
             NaN             NaN             NaN
             NaN             NaN             NaN
             NaN             NaN             NaN
             NaN             NaN             NaN
             NaN             NaN             NaN
             NaN             NaN             NaN
             NaN             NaN             NaN
             NaN             NaN             NaN
             NaN             NaN             NaN
             NaN             NaN             NaN
             NaN             NaN             NaN
             NaN             NaN             NaN
             NaN             NaN             NaN
             NaN             NaN             NaN
             NaN             NaN             NaN
             NaN             NaN             NaN
             NaN             NaN             NaN
             NaN             NaN             NaN
             NaN             NaN             NaN
             NaN             NaN             NaN
             NaN             NaN             NaN
             NaN             NaN             NaN
             NaN             NaN             NaN
             NaN             NaN             NaN
             NaN             NaN             NaN
             NaN             NaN             NaN
             NaN             NaN             NaN
             NaN             NaN             NaN
             NaN             NaN             NaN
             NaN             NaN             NaN
             NaN             NaN             NaN
             NaN             NaN             NaN
             NaN             NaN             NaN
             NaN             NaN             NaN
             NaN             NaN             NaN
             NaN             NaN             NaN
             NaN             NaN             NaN
             NaN             NaN             NaN
             NaN             NaN             NaN
             NaN             NaN             NaN
             NaN             NaN             NaN
             NaN             NaN             NaN
             NaN             NaN             NaN
             NaN             NaN             NaN
             NaN             NaN             NaN
             NaN             NaN             NaN
             NaN             NaN             NaN
             NaN             NaN             NaN
             NaN             NaN             NaN
             NaN             NaN             NaN
             NaN             NaN             NaN
             NaN             NaN             NaN
             NaN             NaN             NaN
             NaN             NaN             NaN
             NaN             NaN             NaN
             NaN             NaN             NaN
             NaN             NaN             NaN
             NaN             NaN             NaN
             NaN             NaN             NaN
             NaN             NaN             NaN
             NaN             NaN             NaN
             NaN             NaN             NaN
             NaN             NaN             NaN
             NaN             NaN             NaN
             NaN             NaN             NaN
             NaN             NaN             NaN
             NaN             NaN             NaN
             NaN             NaN             NaN
             NaN             NaN             NaN
             NaN             NaN             NaN
             NaN             NaN             NaN
             NaN             NaN             NaN
