Al   Hf   N                             
   1.00000000000000     
     9.5487403078722490   -0.0047669675130514    0.0151069343428696
    -4.8026415372033640    8.2471057189601531   -0.0257519288973457
     0.0763673131743918   -0.0441279989621546   10.2330737617667555
   Al   Hf   N 
    34     2    36
Direct
  0.2167824143339494  0.1128016621076408  0.3780018839118301
  0.1094510003230753  0.2228404994548859  0.1338778258500854
  0.8881297215446954  0.1114752141504790  0.8878899631685235
  0.7788139808865513  0.2226687202493776  0.6385041290212191
  0.5620025625419111  0.1021898155226071  0.3889994211832546
  0.4442670815028104  0.2277474549989218  0.0689605928061515
  0.2199733943996236  0.1133324105104160  0.8673072172068806
  0.1040882750673683  0.2200179384248070  0.6371518495814426
  0.8885762432665059  0.1100098245269050  0.3868983427755343
  0.7777228619893737  0.2233322275309392  0.1376056922525209
  0.5603492063906232  0.1070953787639430  0.8873805714109508
  0.4447489307881837  0.2135447625357065  0.5762385814318830
  0.2100769299710951  0.4427573166922593  0.3813725999394480
  0.1086180945830008  0.5566994422742916  0.1353997734972754
  0.8932267541329593  0.4415615487646987  0.8883919833074428
  0.7880257290564191  0.5600518656585539  0.5716089597511245
  0.4356806265597114  0.5642511961734450  0.1288947804151443
  0.2237957488065995  0.4446819330689491  0.8850291150085449
  0.1073196175974069  0.5556317262866014  0.6386786544081601
  0.8979270554032168  0.4402821475178096  0.3887318809663363
  0.7748934687748249  0.5596487507136571  0.0688320872510921
  0.5646572770200273  0.4385576625480063  0.8230894003555830
  0.2259653951710354  0.7753320710557201  0.3847414276910771
  0.1070716500284618  0.8892399877668357  0.0671805611720719
  0.8911939622794931  0.7752720747218002  0.8187969004563432
  0.7781708385636957  0.8966539144365357  0.6361996300884205
  0.5586337756508991  0.7901979970360917  0.3813101377556797
  0.4436479234554992  0.8922038737212905  0.1356479994936566
  0.2258786506559270  0.7740859253207223  0.8861509630814685
  0.1060319457110539  0.8860675787063342  0.5719917007700799
  0.8978694891291015  0.7803196548658266  0.3160137009184356
  0.7753138917067527  0.8935000210281967  0.1338813399170557
  0.5568677106051367  0.7765079472110372  0.8847222521863813
  0.4437772243366521  0.8918791537999561  0.6392818482865348
  0.5512694067513948  0.4505900664989523  0.3446006206844603
  0.4501381921706563  0.5483832488271285  0.6033732715308407
  0.1081752594525614  0.2223682397170578  0.3232740361901086
  0.2190481134346703  0.1142579695151096  0.0862947078612116
  0.7794760017618452  0.2225231784205567  0.8267061998019365
  0.8891562607947173  0.1107174353449784  0.5748563925547826
  0.4386934864631053  0.2012788427229170  0.3807151599277449
  0.5595329813930353  0.1109592740658144  0.0776755148582444
  0.1079989549967186  0.2242336977223050  0.8255755804354959
  0.2191520629845269  0.1119907435171242  0.5979274358812130
  0.7800327297806157  0.2216333189751826  0.3267143819724841
  0.8884761347069546  0.1123794494193809  0.0754336531350259
  0.4468389490259301  0.2231216735804271  0.8771597618472192
  0.5619837806535589  0.1047269439742619  0.5791379004346705
  0.1082312383003123  0.5569480809941709  0.3220306768156785
  0.2174418870446157  0.4437854439100271  0.0725216343958573
  0.7797556555603343  0.5603646164853239  0.8815583675544422
  0.8944194915085997  0.4391262525099509  0.5780845995720150
  0.4211918916567521  0.5789759811084273  0.3161282680098688
  0.5540118792831765  0.4482584212766784  0.1255107177368530
  0.1123458253760769  0.5550653585020904  0.8262716115075945
  0.1959266343213601  0.4335054802042291  0.5690510716386286
  0.8021337137182841  0.5691724581766233  0.3820741107774923
  0.8894526702188015  0.4414702831042305  0.0779808857562470
  0.4458192140078731  0.5541020301672133  0.8273474729060889
  0.5812479225650823  0.4219880556470698  0.6396117615499538
  0.1077583682513772  0.8884757889098328  0.3793819190381192
  0.2249038522931927  0.7758182707957019  0.0764371104332112
  0.7757635451385185  0.8931268196873172  0.8264859457353472
  0.8904183607174346  0.7752225005528315  0.6314732813457561
  0.4439743949836883  0.8918996703685674  0.3223287777299901
  0.5568090973036240  0.7823988149831164  0.0720250593148125
  0.1074055887288528  0.8858433901160756  0.8744013455796191
  0.2256090437537783  0.7741795002308439  0.5772764104173296
  0.7765589212745044  0.8929945112492492  0.3232732960127001
  0.8915427818545945  0.7766081373342726  0.1278496778634387
  0.4448792011458821  0.8872242619307152  0.8265743699707071
  0.5656396523886368  0.8025721593481081  0.5691145735048352
 
             NaN             NaN             NaN
             NaN             NaN             NaN
             NaN             NaN             NaN
             NaN             NaN             NaN
             NaN             NaN             NaN
             NaN             NaN             NaN
             NaN             NaN             NaN
             NaN             NaN             NaN
             NaN             NaN             NaN
             NaN             NaN             NaN
             NaN             NaN             NaN
             NaN             NaN             NaN
             NaN             NaN             NaN
             NaN             NaN             NaN
             NaN             NaN             NaN
             NaN             NaN             NaN
             NaN             NaN             NaN
             NaN             NaN             NaN
             NaN             NaN             NaN
             NaN             NaN             NaN
             NaN             NaN             NaN
             NaN             NaN             NaN
             NaN             NaN             NaN
             NaN             NaN             NaN
             NaN             NaN             NaN
             NaN             NaN             NaN
             NaN             NaN             NaN
             NaN             NaN             NaN
             NaN             NaN             NaN
             NaN             NaN             NaN
             NaN             NaN             NaN
             NaN             NaN             NaN
             NaN             NaN             NaN
             NaN             NaN             NaN
             NaN             NaN             NaN
             NaN             NaN             NaN
             NaN             NaN             NaN
             NaN             NaN             NaN
             NaN             NaN             NaN
             NaN             NaN             NaN
             NaN             NaN             NaN
             NaN             NaN             NaN
             NaN             NaN             NaN
             NaN             NaN             NaN
             NaN             NaN             NaN
             NaN             NaN             NaN
             NaN             NaN             NaN
             NaN             NaN             NaN
             NaN             NaN             NaN
             NaN             NaN             NaN
             NaN             NaN             NaN
             NaN             NaN             NaN
             NaN             NaN             NaN
             NaN             NaN             NaN
             NaN             NaN             NaN
             NaN             NaN             NaN
             NaN             NaN             NaN
             NaN             NaN             NaN
             NaN             NaN             NaN
             NaN             NaN             NaN
             NaN             NaN             NaN
             NaN             NaN             NaN
             NaN             NaN             NaN
             NaN             NaN             NaN
             NaN             NaN             NaN
             NaN             NaN             NaN
             NaN             NaN             NaN
             NaN             NaN             NaN
             NaN             NaN             NaN
             NaN             NaN             NaN
             NaN             NaN             NaN
             NaN             NaN             NaN
