Al   Hf   N                             
   1.00000000000000     
     9.5124805748018844   -0.0045439264697075    0.0204727806112849
    -4.7618384813084340    8.2358225299587637   -0.0248090541833001
     0.0408520679520924   -0.0145967101004579   10.0609343611949402
   Al   Hf   N 
    34     2    36
Direct
  0.2190268450009185  0.1094397066214725  0.3984689764127438
  0.1098145318536439  0.2213855162923295  0.1445777595325808
  0.8887664811426177  0.1118298505556083  0.8960334541136135
  0.7776165966101374  0.2229913688534637  0.6450350267909215
  0.5537785866424514  0.1065839591036450  0.3972565013784433
  0.4404410145956987  0.2148695452770681  0.1424738336065303
  0.2202269806439716  0.1093246343383925  0.8971851902549517
  0.1055729714690230  0.2183750015899406  0.6460741882450947
  0.8885743496221608  0.1120851062389292  0.3953509439493317
  0.7778811430695285  0.2226014577307822  0.1470299200960952
  0.5572606565983307  0.1093732844559980  0.8978312193332982
  0.4441033500020524  0.2112848920165931  0.6539198647698115
  0.2124978751933071  0.4412827124011329  0.3911111632068867
  0.1105167899243895  0.5561746840834587  0.1459300996358053
  0.8911330317854222  0.4432527862495235  0.8978029827866223
  0.7893175057059167  0.5565117836028719  0.6538670075590716
  0.4396616780006752  0.5608847484820387  0.1387683335576924
  0.2208880457543856  0.4430934796711767  0.8964258169911616
  0.1068883246990850  0.5566466494884494  0.6476867691404919
  0.8939539802233298  0.4467814403054859  0.3972201760914373
  0.7855970419564997  0.5600513834888901  0.1424134038909060
  0.5580038577245858  0.4425378527037154  0.8960613430412891
  0.2221525762909096  0.7783677295146347  0.3947355035707787
  0.1107299869437242  0.8897118305100165  0.1487487488797683
  0.8911914016314384  0.7803234542863891  0.8971380373162390
  0.7822737921250820  0.8951289482548717  0.6460588906832854
  0.5593551327584763  0.7881533444355213  0.3910926375371702
  0.4442800839491881  0.8899450871733094  0.1459441587887156
  0.2223945877042652  0.7780894861678078  0.8975344266287948
  0.1116414398916774  0.8889506181691900  0.6474827731477362
  0.8910641381725313  0.7815346534146883  0.3984465228050098
  0.7791514435511289  0.8907562017331827  0.1445481425826429
  0.5574660206755624  0.7797009501916534  0.8964178079145029
  0.4439179882875450  0.8937071937610241  0.6476969189046500
  0.5525760918994891  0.4479702146754363  0.3880904648301424
  0.4477504658586824  0.5529722549437324  0.6237093613378235
  0.1089622459546860  0.2199758071497229  0.3348258244356543
  0.2194732873216410  0.1096718535531380  0.0866150763536808
  0.7783405611148879  0.2222178067912495  0.8366074794095155
  0.8889253733393403  0.1117854362541095  0.5862850775740682
  0.4317302940181307  0.1976682197089730  0.3312605606576540
  0.5575106363913420  0.1107678287065568  0.0868314854140309
  0.1110220756297764  0.2215421763395682  0.8370260758822496
  0.2225485796046911  0.1112439422529334  0.5909631813380827
  0.7771683937119604  0.2234185752785152  0.3388860913267138
  0.8885282913702710  0.1120493628874186  0.0865073784013930
  0.4430851609993454  0.2173865782561677  0.8448712999188857
  0.5555140094274122  0.1089018992614612  0.5879773655132752
  0.1094759235117237  0.5568494700890767  0.3352513486742410
  0.2181054382186716  0.4426320382481705  0.0852856648057383
  0.7831870867500044  0.5574980218022532  0.8448300314828572
  0.8917098496442080  0.4450934660891974  0.5879457257228609
  0.4266917748624834  0.5739849228435432  0.3257381766071816
  0.5556188888618863  0.4448457987552743  0.0997560464609322
  0.1126979448972207  0.5563821753628702  0.8382202532234828
  0.1948795000012993  0.4332937048633667  0.5818921201000009
  0.8029143311390072  0.5688779305963081  0.3312039019921542
  0.8896980159798957  0.4429704015909408  0.0868072122779253
  0.4464985146522977  0.5541357813114303  0.8464740616695821
  0.5766723745639197  0.4239248088130765  0.6076895888483378
  0.1106221236299660  0.8899356477489491  0.3397910398401010
  0.2218701809470289  0.7785835397343774  0.0882659327567836
  0.7790630379137227  0.8896275644996479  0.8370083490324021
  0.8893510612071935  0.7780936469615938  0.5909476311183326
  0.4437088014472010  0.8911065085610801  0.3352645342465550
  0.5579015815844031  0.7824468048002160  0.0852737338340859
  0.1121362020902765  0.8884366886205939  0.8379071782604939
  0.2225917357641265  0.7779797522408813  0.5877257491121668
  0.7806926720337373  0.8917541975420349  0.3347922075177934
  0.8907928139407915  0.7810295349250254  0.0865694563500838
  0.4441467986992294  0.8878599907658540  0.8382292253360788
  0.5673734552858392  0.8058430757003094  0.5818702856142011
 
             NaN             NaN             NaN
             NaN             NaN             NaN
             NaN             NaN             NaN
             NaN             NaN             NaN
             NaN             NaN             NaN
             NaN             NaN             NaN
             NaN             NaN             NaN
             NaN             NaN             NaN
             NaN             NaN             NaN
             NaN             NaN             NaN
             NaN             NaN             NaN
             NaN             NaN             NaN
             NaN             NaN             NaN
             NaN             NaN             NaN
             NaN             NaN             NaN
             NaN             NaN             NaN
             NaN             NaN             NaN
             NaN             NaN             NaN
             NaN             NaN             NaN
             NaN             NaN             NaN
             NaN             NaN             NaN
             NaN             NaN             NaN
             NaN             NaN             NaN
             NaN             NaN             NaN
             NaN             NaN             NaN
             NaN             NaN             NaN
             NaN             NaN             NaN
             NaN             NaN             NaN
             NaN             NaN             NaN
             NaN             NaN             NaN
             NaN             NaN             NaN
             NaN             NaN             NaN
             NaN             NaN             NaN
             NaN             NaN             NaN
             NaN             NaN             NaN
             NaN             NaN             NaN
             NaN             NaN             NaN
             NaN             NaN             NaN
             NaN             NaN             NaN
             NaN             NaN             NaN
             NaN             NaN             NaN
             NaN             NaN             NaN
             NaN             NaN             NaN
             NaN             NaN             NaN
             NaN             NaN             NaN
             NaN             NaN             NaN
             NaN             NaN             NaN
             NaN             NaN             NaN
             NaN             NaN             NaN
             NaN             NaN             NaN
             NaN             NaN             NaN
             NaN             NaN             NaN
             NaN             NaN             NaN
             NaN             NaN             NaN
             NaN             NaN             NaN
             NaN             NaN             NaN
             NaN             NaN             NaN
             NaN             NaN             NaN
             NaN             NaN             NaN
             NaN             NaN             NaN
             NaN             NaN             NaN
             NaN             NaN             NaN
             NaN             NaN             NaN
             NaN             NaN             NaN
             NaN             NaN             NaN
             NaN             NaN             NaN
             NaN             NaN             NaN
             NaN             NaN             NaN
             NaN             NaN             NaN
             NaN             NaN             NaN
             NaN             NaN             NaN
             NaN             NaN             NaN
