Al   Hf   N                             
   1.00000000000000     
     9.5598959092560829   -0.0021584432930591    0.0139202946586236
    -4.8175053760875830    8.2470971866283662   -0.0264291603125631
     0.0872920730445938   -0.0405158626476423   10.2151267975588063
   Al   Hf   N 
    34     2    36
Direct
  0.2158314477121524  0.1128778671652746  0.3887400805462241
  0.1092162952434218  0.2227308198497191  0.1348741254762058
  0.8883345210334905  0.1116888686678333  0.8874651790897073
  0.7788481741334652  0.2229066678856557  0.6381652522754163
  0.5620535790805605  0.1022193294226813  0.3881745348066820
  0.4464170366340298  0.2285153075564166  0.0696962526403170
  0.2183945957239003  0.1141720829435715  0.8820180515940372
  0.1039856388565150  0.2197169882540032  0.6374439508185229
  0.8891384215064962  0.1100578536844743  0.3865696606789960
  0.7781051913317478  0.2234694813453661  0.1375112814713996
  0.5601434745827567  0.1071680171519049  0.8868468155674686
  0.4459327221971894  0.2144420707753341  0.5753553560580099
  0.2098353839663586  0.4422138467660346  0.3810960586050805
  0.1085416293616016  0.5561787714970103  0.1353805617307288
  0.8933014568362300  0.4417535006877633  0.8879189069238559
  0.7879154835795024  0.5601600558553523  0.5710829060381679
  0.4353434541410877  0.5640796663433892  0.1288353015375404
  0.2237726808048620  0.4445026882797456  0.8844566630444195
  0.1073117017168297  0.5552868982013633  0.6385762879168992
  0.8980942026532150  0.4404486796961450  0.3883552900557214
  0.7746622196938384  0.5594575698960285  0.0682959993349498
  0.5640796230801777  0.4379846918456776  0.8229966894261359
  0.2252767987298918  0.7762713820114506  0.3841508359301103
  0.1075236074377505  0.8876646456954058  0.0727705736102604
  0.8909042343399486  0.7756017294534886  0.8195665662673184
  0.7778198775208045  0.8968322140062409  0.6361064926355841
  0.5584390375579950  0.7900396273799122  0.3811363970815947
  0.4440633095009930  0.8919303154815105  0.1358518312073088
  0.2255007857039615  0.7749716715900478  0.8854364700839311
  0.1069313588045240  0.8855033467461290  0.5783019713684695
  0.8977857576242371  0.7805203850601987  0.3163782047908516
  0.7748820996857144  0.8935049163165116  0.1335796188933509
  0.5564691522896940  0.7763429250822700  0.8845135025226861
  0.4442512979383652  0.8919792995850752  0.6393509530525646
  0.5510939559281007  0.4501794868690601  0.3441460407798270
  0.4500758537792026  0.5482968727463838  0.6028415034623146
  0.1092980857871731  0.2214231212576729  0.3233450530858082
  0.2179332906134836  0.1151512190379338  0.0787946776655372
  0.7797130171840934  0.2225657937526663  0.8266433062491039
  0.8889978938203679  0.1110274394294158  0.5750444077269894
  0.4393628351621138  0.2012282762467044  0.3786987127321061
  0.5596886576958308  0.1107776693131347  0.0780045757779556
  0.1090351653595649  0.2231416089377992  0.8255043145008547
  0.2175246536520904  0.1137012989020284  0.5862169933107555
  0.7806680064226610  0.2215767392011856  0.3267196808980107
  0.8886767056753769  0.1126196624633670  0.0754576806896555
  0.4469112784917664  0.2228595674355684  0.8771379189060717
  0.5617405342913215  0.1048383014943884  0.5791361255143459
  0.1085941553337717  0.5568291462159324  0.3221873080223306
  0.2171946225137441  0.4433892833915136  0.0725041463460731
  0.7795445754787305  0.5599709588546135  0.8809568056015251
  0.8944385453911144  0.4396151627391665  0.5781216059875763
  0.4211452764824445  0.5785516765177839  0.3163768490516683
  0.5538044718087169  0.4485109310062159  0.1249443663342371
  0.1126013423980187  0.5550602901472567  0.8264025667074205
  0.1957582047720484  0.4332852269324231  0.5691990389945532
  0.8019114876541583  0.5687223477505011  0.3813594476985802
  0.8894099819951062  0.4417268335116258  0.0779445933025245
  0.4458455409624696  0.5539702579028577  0.8272594827604152
  0.5810961431969857  0.4221850737623672  0.6392155699655151
  0.1093459036898026  0.8885508584389992  0.3741518068515922
  0.2251563042558271  0.7758527907946781  0.0765950362146054
  0.7755030970799653  0.8931787490987951  0.8267626874925305
  0.8893412817830028  0.7751929596018236  0.6311933373393955
  0.4441022867615627  0.8914611421097921  0.3225304936644190
  0.5564429502097227  0.7821806539853398  0.0720747600089388
  0.1087286963271435  0.8863859702262556  0.8704834446014170
  0.2257599837653598  0.7746141794795768  0.5778530817531496
  0.7764121894365789  0.8928901663414529  0.3232607614216432
  0.8902583778885116  0.7763636095368255  0.1269850222364546
  0.4450573650635067  0.8871016071508510  0.8267622844690838
  0.5654828323668629  0.8025576877770076  0.5691857916695252
 
             NaN             NaN             NaN
             NaN             NaN             NaN
             NaN             NaN             NaN
             NaN             NaN             NaN
             NaN             NaN             NaN
             NaN             NaN             NaN
             NaN             NaN             NaN
             NaN             NaN             NaN
             NaN             NaN             NaN
             NaN             NaN             NaN
             NaN             NaN             NaN
             NaN             NaN             NaN
             NaN             NaN             NaN
             NaN             NaN             NaN
             NaN             NaN             NaN
             NaN             NaN             NaN
             NaN             NaN             NaN
             NaN             NaN             NaN
             NaN             NaN             NaN
             NaN             NaN             NaN
             NaN             NaN             NaN
             NaN             NaN             NaN
             NaN             NaN             NaN
             NaN             NaN             NaN
             NaN             NaN             NaN
             NaN             NaN             NaN
             NaN             NaN             NaN
             NaN             NaN             NaN
             NaN             NaN             NaN
             NaN             NaN             NaN
             NaN             NaN             NaN
             NaN             NaN             NaN
             NaN             NaN             NaN
             NaN             NaN             NaN
             NaN             NaN             NaN
             NaN             NaN             NaN
             NaN             NaN             NaN
             NaN             NaN             NaN
             NaN             NaN             NaN
             NaN             NaN             NaN
             NaN             NaN             NaN
             NaN             NaN             NaN
             NaN             NaN             NaN
             NaN             NaN             NaN
             NaN             NaN             NaN
             NaN             NaN             NaN
             NaN             NaN             NaN
             NaN             NaN             NaN
             NaN             NaN             NaN
             NaN             NaN             NaN
             NaN             NaN             NaN
             NaN             NaN             NaN
             NaN             NaN             NaN
             NaN             NaN             NaN
             NaN             NaN             NaN
             NaN             NaN             NaN
             NaN             NaN             NaN
             NaN             NaN             NaN
             NaN             NaN             NaN
             NaN             NaN             NaN
             NaN             NaN             NaN
             NaN             NaN             NaN
             NaN             NaN             NaN
             NaN             NaN             NaN
             NaN             NaN             NaN
             NaN             NaN             NaN
             NaN             NaN             NaN
             NaN             NaN             NaN
             NaN             NaN             NaN
             NaN             NaN             NaN
             NaN             NaN             NaN
             NaN             NaN             NaN
