Al   Hf   N                             
   1.00000000000000     
     9.5616520027626404    0.0041932321908821    0.0124417824575176
    -4.8142318559107462    8.2381351245212269   -0.0278199316721080
     0.0806519431382101   -0.0351277517699900   10.1718148522685397
   Al   Hf   N 
    34     2    36
Direct
  0.2158298591865844  0.1071907478199776  0.3989625354733306
  0.1088123313400615  0.2216751614509462  0.1457378169877046
  0.8885828219482264  0.1124343909232408  0.8980256931010402
  0.7785957807840163  0.2233455654145260  0.6484590472743150
  0.5585061935084568  0.1032969503796082  0.3970356889386295
  0.4454057212902782  0.2253541670821235  0.0903280571275999
  0.2162415408108842  0.1087021548481957  0.8978864939482989
  0.1042217177625560  0.2186110936356371  0.6470966235845239
  0.8887462940734849  0.1105821361138268  0.3972820689480798
  0.7783996983298636  0.2236187499789537  0.1487186561775502
  0.5593400117633962  0.1072982916835201  0.8980563165658282
  0.4443277348182946  0.2135633732476450  0.6034826127742150
  0.2093403441716575  0.4411414395311866  0.3915976173947868
  0.1087575678599677  0.5561712783539079  0.1459483419019563
  0.8935433815398639  0.4418677719586483  0.8987134473419474
  0.7904807261232421  0.5627705667983776  0.5827809601962386
  0.4359163460856621  0.5634435046120956  0.1399717932434683
  0.2235266660418276  0.4439783751984550  0.8950074291759691
  0.1076443575722621  0.5555902957491767  0.6493581310857550
  0.8984213973943298  0.4405796005520699  0.3992863451450290
  0.7763019091825711  0.5610589665216494  0.0799064926335333
  0.5633457323328841  0.4389448364408537  0.8374912402233008
  0.2226014130978413  0.7785888687892424  0.3957144649586084
  0.1191305504722706  0.8933551823097901  0.1470294229248381
  0.8865333507279303  0.7748200454299266  0.8331718809293918
  0.7779021666159878  0.8970438400078820  0.6462238812303411
  0.5572888419708448  0.7899911578504160  0.3918339250049883
  0.4445238588309763  0.8910383638725961  0.1468894595071291
  0.2232561765733365  0.7783675503696514  0.8985406150965218
  0.1172584413536200  0.8902694169491738  0.6491550338299419
  0.8914360473917498  0.7785124595635367  0.3294400160659734
  0.7751663681220435  0.8931981949562910  0.1430977821892299
  0.5549508925754481  0.7767889146395675  0.8954864934547260
  0.4434534125678908  0.8917263687063155  0.6493691773707297
  0.5504547338620895  0.4479341826680283  0.3564569030994562
  0.4507834722575055  0.5492774466326225  0.6135598696057158
  0.1089888600149678  0.2196090722755457  0.3349540314326589
  0.2151930416731531  0.1096040454023850  0.0880445086145301
  0.7790817773738752  0.2225841403825015  0.8373180727948721
  0.8886452844507318  0.1116480534820994  0.5862239189175327
  0.4355811035763040  0.1973219516718103  0.3681159553382471
  0.5601612651603460  0.1098603155757800  0.0886181174847138
  0.1098052180119424  0.2213311587537632  0.8363398343340833
  0.2162180346541831  0.1083025448002815  0.5917597674912045
  0.7794313844946501  0.2215762378975015  0.3383918345109791
  0.8887412706701028  0.1131302676142525  0.0865095351782159
  0.4446295120646511  0.2203392166569955  0.8838169645387453
  0.5595034190896726  0.1059967249019849  0.5889082153705303
  0.1090336322609815  0.5572168639932968  0.3336335284538023
  0.2173999594475049  0.4428659819486640  0.0838344142201066
  0.7802670154877944  0.5601708647499777  0.8921521343758201
  0.8948562353424094  0.4401351059164966  0.5896776518846352
  0.4214020992889331  0.5770893437510978  0.3286321297585530
  0.5544250292715844  0.4491196292737882  0.1345863451991036
  0.1131893269899820  0.5564604108189855  0.8381908569147853
  0.1961070618053071  0.4330649011119405  0.5805512588959587
  0.8024707225966807  0.5690515103805751  0.3930921955043161
  0.8897055413846644  0.4417857327122618  0.0893372971408937
  0.4456165903631870  0.5544489331521660  0.8389321992602987
  0.5833180792642807  0.4250743456854522  0.6517425681431419
  0.1174947043929606  0.8918470234224216  0.3386116631445191
  0.2235624426018319  0.7785878363973211  0.0872380842181570
  0.7744876823085391  0.8935654415187386  0.8386150197490849
  0.8881432159960525  0.7769282148100345  0.6398515511938427
  0.4429437474415394  0.8902550966546698  0.3341753562918726
  0.5557362508276356  0.7817833988746941  0.0834833903134466
  0.1174977020328427  0.8904658037161823  0.8402112754418738
  0.2228706290199796  0.7773488304535547  0.5871300573699685
  0.7752985236536176  0.8932328361981803  0.3348336162543930
  0.8888747619189274  0.7771037767092537  0.1352676022072572
  0.4438058586157467  0.8870043475447460  0.8376373043360203
  0.5650591909923932  0.8034529250213893  0.5803359278251321
 
             NaN             NaN             NaN
             NaN             NaN             NaN
             NaN             NaN             NaN
             NaN             NaN             NaN
             NaN             NaN             NaN
             NaN             NaN             NaN
             NaN             NaN             NaN
             NaN             NaN             NaN
             NaN             NaN             NaN
             NaN             NaN             NaN
             NaN             NaN             NaN
             NaN             NaN             NaN
             NaN             NaN             NaN
             NaN             NaN             NaN
             NaN             NaN             NaN
             NaN             NaN             NaN
             NaN             NaN             NaN
             NaN             NaN             NaN
             NaN             NaN             NaN
             NaN             NaN             NaN
             NaN             NaN             NaN
             NaN             NaN             NaN
             NaN             NaN             NaN
             NaN             NaN             NaN
             NaN             NaN             NaN
             NaN             NaN             NaN
             NaN             NaN             NaN
             NaN             NaN             NaN
             NaN             NaN             NaN
             NaN             NaN             NaN
             NaN             NaN             NaN
             NaN             NaN             NaN
             NaN             NaN             NaN
             NaN             NaN             NaN
             NaN             NaN             NaN
             NaN             NaN             NaN
             NaN             NaN             NaN
             NaN             NaN             NaN
             NaN             NaN             NaN
             NaN             NaN             NaN
             NaN             NaN             NaN
             NaN             NaN             NaN
             NaN             NaN             NaN
             NaN             NaN             NaN
             NaN             NaN             NaN
             NaN             NaN             NaN
             NaN             NaN             NaN
             NaN             NaN             NaN
             NaN             NaN             NaN
             NaN             NaN             NaN
             NaN             NaN             NaN
             NaN             NaN             NaN
             NaN             NaN             NaN
             NaN             NaN             NaN
             NaN             NaN             NaN
             NaN             NaN             NaN
             NaN             NaN             NaN
             NaN             NaN             NaN
             NaN             NaN             NaN
             NaN             NaN             NaN
             NaN             NaN             NaN
             NaN             NaN             NaN
             NaN             NaN             NaN
             NaN             NaN             NaN
             NaN             NaN             NaN
             NaN             NaN             NaN
             NaN             NaN             NaN
             NaN             NaN             NaN
             NaN             NaN             NaN
             NaN             NaN             NaN
             NaN             NaN             NaN
             NaN             NaN             NaN
