Al   Hf   N                             
   1.00000000000000     
     9.5368212520880267   -0.0127003471974896    0.0162172781176292
    -4.7563879181793505    8.2649212214570245   -0.0155302400775080
     0.0950814908642607   -0.0560097224792988   10.2682652477421055
   Al   Hf   N 
    34     2    36
Direct
  0.2226242221421532  0.1045980252652044  0.3206961300830379
  0.1088156394206750  0.2239637528331311  0.1375132172174792
  0.8929468585035509  0.1086771241699984  0.8894403212910885
  0.7762041386988119  0.2257689923271250  0.5713061206246336
  0.5593998744809858  0.1110375046642090  0.3165661750074346
  0.4440576966193864  0.2254939015270138  0.0715110416890397
  0.2254184188180626  0.1101015448004301  0.8220205138149475
  0.1042759110140428  0.2211778279742017  0.6385255745807609
  0.8927823682330727  0.1082021373598610  0.3888268913477264
  0.7754891394781069  0.2260060587401067  0.0682891046220247
  0.5592298355007421  0.1142987739644593  0.8253649234174614
  0.4426838867899665  0.2095909788549511  0.5750690067562916
  0.2076913648529121  0.4433223626629503  0.3838742874260765
  0.1108261035453243  0.5528748637459854  0.1319405249907995
  0.8839330311409898  0.4403758043946399  0.8249662919271850
  0.7930967206605543  0.5586195000400210  0.5754147838025577
  0.4381932962714407  0.5629198785081362  0.1349404249410024
  0.2242150510166925  0.4450511736407726  0.8882268968871430
  0.1101901772403313  0.5533637363047911  0.6429416173649737
  0.8859662651524252  0.4393580797319050  0.3178874426260667
  0.7763646809183036  0.5570544998424101  0.0716972600557156
  0.5623108083791438  0.4389992207502291  0.8259111404895315
  0.2241982338622420  0.7827852803577829  0.3167794639196610
  0.1106816574702875  0.8900604299860927  0.0685927299939683
  0.8921943485720901  0.7760138922375378  0.8220501563166668
  0.7814456406211571  0.8972434355241748  0.6392421000702618
  0.5586806577978696  0.7920238735400507  0.3827636488119743
  0.4458487840798910  0.8926969057192906  0.0982464975549317
  0.2234032430810217  0.7830395116842239  0.8289397945370357
  0.1122512650100778  0.8894279592882253  0.5695445687110642
  0.8974688428949412  0.7786929420637064  0.3206819131805726
  0.7775166484481889  0.8923564767180708  0.1381181994746353
  0.5581210725501834  0.7759045744285077  0.8878714796582265
  0.4454564886586319  0.8941128125498639  0.6146530526034065
  0.5510226951486918  0.4503419689316151  0.3532411100409200
  0.4503950404180498  0.5497905350095573  0.6052348270870975
  0.1084391907534902  0.2244943605172604  0.3256592529667018
  0.2257819543151208  0.1083007047075352  0.1309029070146217
  0.7763650181935864  0.2245266199726028  0.8815462732507916
  0.8928430325781940  0.1083908384615423  0.5766171407204047
  0.4347507634093096  0.1965642390295460  0.3883767827129274
  0.5593107867947876  0.1191168588397776  0.1279253531264010
  0.1089627866193159  0.2262293097515067  0.8275981864263644
  0.2249000074049402  0.1077380228223728  0.6331926307801905
  0.7752925268757234  0.2247335938601852  0.3814824922976002
  0.8923748176751334  0.1087051589931124  0.0775152210645454
  0.4432293277238817  0.2212443311064686  0.8848608105577891
  0.5610562843431938  0.1137626832618877  0.6373372069936085
  0.1093583410339281  0.5549435900763878  0.3239370384156712
  0.2205890052183811  0.4423050873722684  0.0741402388996396
  0.7804578366033466  0.5583054312855027  0.8851004847499701
  0.8865668230638832  0.4394474839082833  0.6361041168142089
  0.4218870482320730  0.5781333268846092  0.3210719805779700
  0.5543355549355721  0.4468383854093816  0.1302028506915530
  0.1142774131288491  0.5546117923728117  0.8359757991073200
  0.1953428324276958  0.4334428369239067  0.5700315790758820
  0.8054233514553210  0.5669060116097882  0.3890614289376770
  0.8803472376183107  0.4408239455230032  0.1279716594359360
  0.4459190524030530  0.5551000770977992  0.8283235435536418
  0.5792984625423455  0.4225036924282730  0.6392391563671843
  0.1115262884679770  0.8900278387480671  0.3824277571568737
  0.2206578033142562  0.7814146615143243  0.1219317873887449
  0.7761480391136832  0.8926281058445046  0.8276727197528551
  0.8946075009054287  0.7764917785256690  0.6334345870255322
  0.4445499568125310  0.8930705170176185  0.3431392321431659
  0.5609524750362362  0.7789933103318990  0.0749091170500051
  0.1098080838161346  0.8918746914887495  0.8826736783196610
  0.2218850678439746  0.7821637272789957  0.6324192518157371
  0.7774427412291262  0.8925502744837313  0.3259130016864369
  0.8932284791295567  0.7752712901260603  0.1311679748398394
  0.4457649134486699  0.8906445976174734  0.8618720197806221
  0.5702076379981634  0.8039966352919636  0.5714467219654681
 
             NaN             NaN             NaN
             NaN             NaN             NaN
             NaN             NaN             NaN
             NaN             NaN             NaN
             NaN             NaN             NaN
             NaN             NaN             NaN
             NaN             NaN             NaN
             NaN             NaN             NaN
             NaN             NaN             NaN
             NaN             NaN             NaN
             NaN             NaN             NaN
             NaN             NaN             NaN
             NaN             NaN             NaN
             NaN             NaN             NaN
             NaN             NaN             NaN
             NaN             NaN             NaN
             NaN             NaN             NaN
             NaN             NaN             NaN
             NaN             NaN             NaN
             NaN             NaN             NaN
             NaN             NaN             NaN
             NaN             NaN             NaN
             NaN             NaN             NaN
             NaN             NaN             NaN
             NaN             NaN             NaN
             NaN             NaN             NaN
             NaN             NaN             NaN
             NaN             NaN             NaN
             NaN             NaN             NaN
             NaN             NaN             NaN
             NaN             NaN             NaN
             NaN             NaN             NaN
             NaN             NaN             NaN
             NaN             NaN             NaN
             NaN             NaN             NaN
             NaN             NaN             NaN
             NaN             NaN             NaN
             NaN             NaN             NaN
             NaN             NaN             NaN
             NaN             NaN             NaN
             NaN             NaN             NaN
             NaN             NaN             NaN
             NaN             NaN             NaN
             NaN             NaN             NaN
             NaN             NaN             NaN
             NaN             NaN             NaN
             NaN             NaN             NaN
             NaN             NaN             NaN
             NaN             NaN             NaN
             NaN             NaN             NaN
             NaN             NaN             NaN
             NaN             NaN             NaN
             NaN             NaN             NaN
             NaN             NaN             NaN
             NaN             NaN             NaN
             NaN             NaN             NaN
             NaN             NaN             NaN
             NaN             NaN             NaN
             NaN             NaN             NaN
             NaN             NaN             NaN
             NaN             NaN             NaN
             NaN             NaN             NaN
             NaN             NaN             NaN
             NaN             NaN             NaN
             NaN             NaN             NaN
             NaN             NaN             NaN
             NaN             NaN             NaN
             NaN             NaN             NaN
             NaN             NaN             NaN
             NaN             NaN             NaN
             NaN             NaN             NaN
             NaN             NaN             NaN
