Al   Hf   N                             
   1.00000000000000     
     9.5355262719499230   -0.0059968679122940    0.0220366956422272
    -4.7582710626365472    8.2629109175238664   -0.0223065958129021
     0.0882573930647869   -0.0504007394178305   10.2732286211950790
   Al   Hf   N 
    34     2    36
Direct
  0.2200087214786046  0.1040396598288907  0.3190330408223335
  0.1091000249847883  0.2251411656399272  0.1359966372277210
  0.8901884377039510  0.1110642592807806  0.8894122056074152
  0.7788645233504317  0.2194161927690288  0.6405767016066242
  0.5538688322069293  0.1088292267842338  0.3230784859809075
  0.4436335438353004  0.2245766324102701  0.0698764189886163
  0.2234460309649692  0.1088218450764684  0.8200066664582205
  0.1037762185001613  0.2224890958222781  0.6372171860516992
  0.8884572466180517  0.1119608918175827  0.3881770406631395
  0.7794560636659007  0.2192532055188936  0.1283813121061637
  0.5536808408013448  0.1099905497357503  0.8376311608059163
  0.4427875379834593  0.2084314443024797  0.5746694990654235
  0.2079217307809757  0.4425529325574720  0.3823825374816678
  0.1170800130885725  0.5608025039873631  0.1330750970205991
  0.8903370281106431  0.4483938463267136  0.8263746727429008
  0.7932300344233277  0.5579529511506434  0.5738895305806455
  0.4387786806374879  0.5619356652862373  0.1321419332098574
  0.2246706073508326  0.4441446411942553  0.8861880129717196
  0.1150572720944036  0.5617615887952608  0.6400861204935780
  0.8908708305766599  0.4475712699774467  0.3152623055878926
  0.7767559115188635  0.5562113459430004  0.0696337624124909
  0.5628208407181974  0.4383597113270813  0.8231938433120097
  0.2250889467570293  0.7755545463804256  0.3864956788534654
  0.1080692594476833  0.8926296651035854  0.0684608937668408
  0.8922192065241502  0.7772550993046060  0.8203632987546449
  0.7783937530040167  0.8965266269169024  0.6372792712208878
  0.5582136514021736  0.7921122895814574  0.3826544597053361
  0.4406728809279926  0.8847735107654113  0.1325555229437902
  0.2254880385595192  0.7750897401638823  0.8897499054297303
  0.1081560257639659  0.8930546069494614  0.5689379082595167
  0.8967547748414473  0.7800479622944287  0.3193070292599991
  0.7756240777443223  0.8910538080680894  0.1360536247073678
  0.5569430613289081  0.7757521878587732  0.8864781227747336
  0.4402875509537522  0.8877418036745705  0.6411930895634645
  0.5506065439510001  0.4508255157141224  0.3528218400646702
  0.4500706832350553  0.5507182768248694  0.6044018545646732
  0.1066440469551162  0.2246357064425404  0.3245638311882745
  0.2251401341456977  0.1086346724500808  0.1302769941334879
  0.7811054800052976  0.2204168801017370  0.8373567642493817
  0.8894367864194667  0.1110406254991188  0.5754859211434625
  0.4320659703791951  0.1959279434643173  0.3875061052721635
  0.5539564124044913  0.1122118178064514  0.1130468624293835
  0.1078640858982028  0.2258936545398226  0.8267081599600977
  0.2238308581716537  0.1086711680312313  0.6320338738155278
  0.7800118514618144  0.2197025599664938  0.3267355977627006
  0.8913621028730188  0.1091335790954899  0.0751902645661047
  0.4408658912178660  0.2213928839873622  0.8836899550268429
  0.5546916623623399  0.1091396813601890  0.6301789864786008
  0.1144840264466705  0.5617945164630884  0.3217658408945402
  0.2205929318888191  0.4428878978655004  0.0727865205675048
  0.7804612402172242  0.5590329353809468  0.8837046045545591
  0.8916735249061880  0.4463816788516542  0.6339414581045192
  0.4219551503077251  0.5784273129727177  0.3188698326500741
  0.5550893076779048  0.4459276280700044  0.1294602831595206
  0.1206251780393827  0.5603378248617784  0.8298174389843599
  0.1955742722392793  0.4342249309085520  0.5688128831785327
  0.8056555261172066  0.5678603387550942  0.3878251701908872
  0.8870185998589951  0.4469599663344387  0.1217329509880254
  0.4466853327396245  0.5541943672937367  0.8276070760452878
  0.5790361792342479  0.4227727496411428  0.6367591949877396
  0.1081120689539816  0.8927787740466596  0.3813304045331239
  0.2243316908933608  0.7764616380412430  0.0762009740710270
  0.7751989257401219  0.8929011975947394  0.8269019534264861
  0.8925686780821703  0.7766829526602160  0.6322209123426130
  0.4392713909070077  0.8863076105140415  0.3212420253438309
  0.5579012251947373  0.7798574675428713  0.0729845060778136
  0.1086079825308269  0.8924978705289230  0.8803767627284159
  0.2254849632226262  0.7763471624818237  0.5763521280193482
  0.7761191627370063  0.8934505853823771  0.3247253759999050
  0.8920854113987959  0.7749810967695996  0.1302503846205302
  0.4410494085223244  0.8806676385027404  0.8306703683717391
  0.5663971037674337  0.8050641768199062  0.5693057801781399
 
             NaN             NaN             NaN
             NaN             NaN             NaN
             NaN             NaN             NaN
             NaN             NaN             NaN
             NaN             NaN             NaN
             NaN             NaN             NaN
             NaN             NaN             NaN
             NaN             NaN             NaN
             NaN             NaN             NaN
             NaN             NaN             NaN
             NaN             NaN             NaN
             NaN             NaN             NaN
             NaN             NaN             NaN
             NaN             NaN             NaN
             NaN             NaN             NaN
             NaN             NaN             NaN
             NaN             NaN             NaN
             NaN             NaN             NaN
             NaN             NaN             NaN
             NaN             NaN             NaN
             NaN             NaN             NaN
             NaN             NaN             NaN
             NaN             NaN             NaN
             NaN             NaN             NaN
             NaN             NaN             NaN
             NaN             NaN             NaN
             NaN             NaN             NaN
             NaN             NaN             NaN
             NaN             NaN             NaN
             NaN             NaN             NaN
             NaN             NaN             NaN
             NaN             NaN             NaN
             NaN             NaN             NaN
             NaN             NaN             NaN
             NaN             NaN             NaN
             NaN             NaN             NaN
             NaN             NaN             NaN
             NaN             NaN             NaN
             NaN             NaN             NaN
             NaN             NaN             NaN
             NaN             NaN             NaN
             NaN             NaN             NaN
             NaN             NaN             NaN
             NaN             NaN             NaN
             NaN             NaN             NaN
             NaN             NaN             NaN
             NaN             NaN             NaN
             NaN             NaN             NaN
             NaN             NaN             NaN
             NaN             NaN             NaN
             NaN             NaN             NaN
             NaN             NaN             NaN
             NaN             NaN             NaN
             NaN             NaN             NaN
             NaN             NaN             NaN
             NaN             NaN             NaN
             NaN             NaN             NaN
             NaN             NaN             NaN
             NaN             NaN             NaN
             NaN             NaN             NaN
             NaN             NaN             NaN
             NaN             NaN             NaN
             NaN             NaN             NaN
             NaN             NaN             NaN
             NaN             NaN             NaN
             NaN             NaN             NaN
             NaN             NaN             NaN
             NaN             NaN             NaN
             NaN             NaN             NaN
             NaN             NaN             NaN
             NaN             NaN             NaN
             NaN             NaN             NaN
