Al   Hf   N                             
   1.00000000000000     
     9.5245906409425825   -0.0054143052459634    0.0220788049999731
    -4.7477721303232601    8.2569074192410721   -0.0219016530424578
     0.0853552166633182   -0.0496249522115086   10.3109338461967077
   Al   Hf   N 
    34     2    36
Direct
  0.2206550670271575  0.1042252014060094  0.3193089532344137
  0.1094977662999715  0.2254263636514783  0.1364963845909598
  0.8896369200878319  0.1113768568467429  0.8893739267736931
  0.7806742633195088  0.2203396368554550  0.6395969215100743
  0.5532869884801941  0.1098349768932569  0.3155317645473574
  0.4442213398826657  0.2240673904263661  0.0695659927095214
  0.2235312474690605  0.1089329510597405  0.8203722230496414
  0.1043610895490178  0.2226416156441799  0.6375827403718474
  0.8885562170183735  0.1124581407883755  0.3881665988389949
  0.7806341327790973  0.2203803760093464  0.1285152655659274
  0.5525383394387560  0.1109715272964231  0.8262783268581140
  0.4430279558659543  0.2080806204019263  0.5738551439601262
  0.2083549086096668  0.4428554669629716  0.3826097095489481
  0.1173275591105586  0.5611833040205760  0.1334810990269423
  0.8900423350342705  0.4484753386187726  0.8262784043565170
  0.7929331618767200  0.5579859460215754  0.5738551567622796
  0.4389657925165145  0.5620483954861246  0.1324052255290507
  0.2247174196692097  0.4443917802770577  0.8864262141706963
  0.1154068032968532  0.5618108774857600  0.6405804495313768
  0.8911796451538921  0.4477275720318101  0.3155318368258237
  0.7769464200537139  0.5567926180135773  0.0695660241201322
  0.5626953624135179  0.4383186669542269  0.8239443948475750
  0.2251970020402044  0.7758173123957798  0.3867490118525986
  0.1079652681253064  0.8930487187658021  0.0684411115828004
  0.8920808748536828  0.7774825314425583  0.8203721680527308
  0.7783724830751638  0.8966530631688490  0.6375827236389918
  0.5581586769388804  0.7926593210943308  0.3826097275621428
  0.4398310303307543  0.8836865970659087  0.1334811561238186
  0.2255545211177102  0.7754593320804302  0.8899306713095644
  0.1079034348494835  0.8931106219600052  0.5688960469390963
  0.8967892855898528  0.7803594655417336  0.3193090018888841
  0.7755876763792706  0.8915162836513790  0.1364964230482111
  0.5566220672999306  0.7762963829368859  0.8864261937964582
  0.4392030638559010  0.8856068257508467  0.6405804935932780
  0.5507997265166373  0.4502146937489306  0.3521890671053966
  0.4508485745048155  0.5501653625095123  0.6043836260611116
  0.1071118152574092  0.2249401087030536  0.3245197364553921
  0.2256763013937250  0.1088159251502352  0.1308075493736341
  0.7804032842357869  0.2206104057230339  0.8372030068436566
  0.8899984775985633  0.1110158212959847  0.5751902346963151
  0.4329086994671821  0.1952727867029194  0.3882117046037230
  0.5532826453632940  0.1136805599094495  0.1221286922710673
  0.1077752357346755  0.2261253395410857  0.8265454054189947
  0.2244017450119991  0.1085066248040288  0.6327285054560610
  0.7805703271568381  0.2204442040142364  0.3275309702547269
  0.8915441135863502  0.1094700142356515  0.0748698790312999
  0.4415040724050751  0.2204770711111271  0.8841847485503178
  0.5541505108679227  0.1090271495608406  0.6341168814329544
  0.1149554190082154  0.5622312249276007  0.3215278098031550
  0.2207619409048380  0.4431175058040728  0.0727185537905023
  0.7805367741673193  0.5595096953530154  0.8841847631774471
  0.8919865379952510  0.4468633313425436  0.6341169417498771
  0.4226020939453847  0.5784122640111894  0.3187823894591700
  0.5551942450461493  0.4458195971435592  0.1292912881309993
  0.1205068216610099  0.5605728893608102  0.8297158108816949
  0.1960318520461106  0.4343821484473877  0.5686877260859337
  0.8057415962635852  0.5681056676063370  0.3882117397809361
  0.8873337259061512  0.4477318275481178  0.1221287091759833
  0.4466387383848504  0.5543751657176419  0.8274472671110256
  0.5792256049201192  0.4217881196532212  0.6380603773891692
  0.1079006401865239  0.8931137734353323  0.3819570392868361
  0.2243641717186831  0.7766502139211450  0.0757790811605673
  0.7748886048800223  0.8932386945457147  0.8265453897461001
  0.8925072922268943  0.7766121879762905  0.6327284534540092
  0.4387832484135761  0.8860591601859444  0.3215278891737661
  0.5578966932251003  0.7802521824249342  0.0727185174661019
  0.1081990060482016  0.8928147231904379  0.8810101081053507
  0.2250505839598527  0.7759634209586833  0.5759133184394442
  0.7760741857211082  0.8939025882821153  0.3245197699596181
  0.8921979541171008  0.7753376165929328  0.1308075876046730
  0.4404410562657597  0.8805070176843244  0.8297158209540114
  0.5666319707430388  0.8049821057673514  0.5686877460658136
 
             NaN             NaN             NaN
             NaN             NaN             NaN
             NaN             NaN             NaN
             NaN             NaN             NaN
             NaN             NaN             NaN
             NaN             NaN             NaN
             NaN             NaN             NaN
             NaN             NaN             NaN
             NaN             NaN             NaN
             NaN             NaN             NaN
             NaN             NaN             NaN
             NaN             NaN             NaN
             NaN             NaN             NaN
             NaN             NaN             NaN
             NaN             NaN             NaN
             NaN             NaN             NaN
             NaN             NaN             NaN
             NaN             NaN             NaN
             NaN             NaN             NaN
             NaN             NaN             NaN
             NaN             NaN             NaN
             NaN             NaN             NaN
             NaN             NaN             NaN
             NaN             NaN             NaN
             NaN             NaN             NaN
             NaN             NaN             NaN
             NaN             NaN             NaN
             NaN             NaN             NaN
             NaN             NaN             NaN
             NaN             NaN             NaN
             NaN             NaN             NaN
             NaN             NaN             NaN
             NaN             NaN             NaN
             NaN             NaN             NaN
             NaN             NaN             NaN
             NaN             NaN             NaN
             NaN             NaN             NaN
             NaN             NaN             NaN
             NaN             NaN             NaN
             NaN             NaN             NaN
             NaN             NaN             NaN
             NaN             NaN             NaN
             NaN             NaN             NaN
             NaN             NaN             NaN
             NaN             NaN             NaN
             NaN             NaN             NaN
             NaN             NaN             NaN
             NaN             NaN             NaN
             NaN             NaN             NaN
             NaN             NaN             NaN
             NaN             NaN             NaN
             NaN             NaN             NaN
             NaN             NaN             NaN
             NaN             NaN             NaN
             NaN             NaN             NaN
             NaN             NaN             NaN
             NaN             NaN             NaN
             NaN             NaN             NaN
             NaN             NaN             NaN
             NaN             NaN             NaN
             NaN             NaN             NaN
             NaN             NaN             NaN
             NaN             NaN             NaN
             NaN             NaN             NaN
             NaN             NaN             NaN
             NaN             NaN             NaN
             NaN             NaN             NaN
             NaN             NaN             NaN
             NaN             NaN             NaN
             NaN             NaN             NaN
             NaN             NaN             NaN
             NaN             NaN             NaN
