Al   Hf   N                             
   1.00000000000000     
     9.5255723518222304   -0.0099401169326145    0.0173259787105808
    -4.7524051613883973    8.2553782064276220   -0.0171761466822358
     0.0889105927050991   -0.0516641003578186   10.2930117943486579
   Al   Hf   N 
    34     2    36
Direct
  0.2211957250704959  0.1042060768236769  0.3195749256427182
  0.1090457610697058  0.2254184672182118  0.1372862615429963
  0.8914020179503536  0.1096117764366915  0.8884695458434811
  0.7791075412497492  0.2219070013856951  0.6156856578997872
  0.5580812666198609  0.1122910063148888  0.3147970297442799
  0.4433477617725896  0.2243456002742087  0.0697868267118722
  0.2240360512076197  0.1088818621129339  0.8205323925062382
  0.1052329668234055  0.2227580268459421  0.6377885369056550
  0.8889208850468306  0.1120933424490764  0.3877739783371885
  0.7777488006402355  0.2232658981319259  0.0924567701676821
  0.5546264987958341  0.1123249796195089  0.8267672786490925
  0.4431315686642832  0.2081248545777635  0.5736256341592803
  0.2076649823369114  0.4428299342657783  0.3825545104218948
  0.1170318210638792  0.5611650924003611  0.1339733708596126
  0.8886897611536171  0.4463882600309460  0.8267673588060143
  0.7928888208804492  0.5578823466888770  0.5736256239897400
  0.4387001472247955  0.5623139646060590  0.1329632718117774
  0.2248451375902648  0.4446048908844146  0.8865714916257008
  0.1155211019274640  0.5615947312442217  0.6413218500108070
  0.8887238065950014  0.4429334942189443  0.3147970892260605
  0.7766681117126999  0.5576660992482063  0.0697868618995734
  0.5625863453134736  0.4384276868935702  0.8240131391707064
  0.2252514938094160  0.7757629710931429  0.3862746694081047
  0.1078806597294211  0.8931331925543091  0.0686627205175003
  0.8921318592305715  0.7769777637948850  0.8205323507820910
  0.7782559348098205  0.8957811390368157  0.6377885169156259
  0.5581840426573226  0.7933490779638687  0.3825545736803018
  0.4398492498295598  0.8839823378110104  0.1339734531925903
  0.2255099055533531  0.7755043422081903  0.8900721439518138
  0.1080835447303366  0.8929303230705186  0.5688516730725871
  0.8968081724476786  0.7798186056568303  0.3195749412914592
  0.7755954819429463  0.8919682270840510  0.1372862987777883
  0.5564088738713685  0.7761686665047042  0.8865714676913862
  0.4394193897969634  0.8854927653748197  0.6413219973866122
  0.5512157560525223  0.4497984657792863  0.3522492314117247
  0.4508613153653166  0.5501524654493604  0.6036276069342255
  0.1075245990851506  0.2248279746273684  0.3250244601354539
  0.2254803834834115  0.1089007600868021  0.1308655247317328
  0.7781833356948781  0.2228313764001062  0.8613819052315338
  0.8914580264022126  0.1095559910958386  0.5766749535286778
  0.4334532039449285  0.1948336503447068  0.3878483781427802
  0.5541632563681804  0.1148522788411062  0.1227170250992345
  0.1084807096762406  0.2263525713593642  0.8263978660002000
  0.2249262149243881  0.1083215602952759  0.6327526751953478
  0.7785389825534125  0.2224758405981858  0.3492577209402600
  0.8926378540757411  0.1083760812225853  0.0751032102429790
  0.4415102161246555  0.2205015619038987  0.8842050991020918
  0.5558310572668352  0.1101608596309698  0.6364407573969771
  0.1139604275062069  0.5617130199669862  0.3214309346109772
  0.2204318172318423  0.4431620806197819  0.0730398589046384
  0.7805124031831604  0.5595037833954773  0.8842051367690829
  0.8908530395955946  0.4451832075045002  0.6364408079502906
  0.4226931862605778  0.5783209495888727  0.3198227542176454
  0.5548587464704078  0.4461551042546631  0.1292876562622496
  0.1200412708265495  0.5602890867462174  0.8301194566560383
  0.1954877259968617  0.4342261962652838  0.5688598192131703
  0.8061806528296516  0.5675611250535723  0.3878483658982558
  0.8861620328421175  0.4468512407016663  0.1227170378693796
  0.4465992291308973  0.5544145221927607  0.8273299862613119
  0.5792967528891474  0.4217169944614762  0.6378344132936183
  0.1080420149988865  0.8929723431381267  0.3819413537255715
  0.2242229793655667  0.7767913443141321  0.0760921360969401
  0.7746611196778916  0.8925330791121570  0.8263978364647289
  0.8926923413898192  0.7760877957103414  0.6327526458730056
  0.4393015747092844  0.8870543216531971  0.3214310085073384
  0.5578519316352093  0.7805821359298263  0.0730398331004314
  0.1082220582157558  0.8927917524743562  0.8809927927646307
  0.2251599954729043  0.7758540714919284  0.5762097496461772
  0.7761860184843237  0.8934895345550160  0.3250244984993707
  0.8921131111250954  0.7755335674328219  0.1308655493013894
  0.4407253111853304  0.8809732692804857  0.8301195590502481
  0.5667876607157875  0.8055260117548658  0.5688598662505024
 
             NaN             NaN             NaN
             NaN             NaN             NaN
             NaN             NaN             NaN
             NaN             NaN             NaN
             NaN             NaN             NaN
             NaN             NaN             NaN
             NaN             NaN             NaN
             NaN             NaN             NaN
             NaN             NaN             NaN
             NaN             NaN             NaN
             NaN             NaN             NaN
             NaN             NaN             NaN
             NaN             NaN             NaN
             NaN             NaN             NaN
             NaN             NaN             NaN
             NaN             NaN             NaN
             NaN             NaN             NaN
             NaN             NaN             NaN
             NaN             NaN             NaN
             NaN             NaN             NaN
             NaN             NaN             NaN
             NaN             NaN             NaN
             NaN             NaN             NaN
             NaN             NaN             NaN
             NaN             NaN             NaN
             NaN             NaN             NaN
             NaN             NaN             NaN
             NaN             NaN             NaN
             NaN             NaN             NaN
             NaN             NaN             NaN
             NaN             NaN             NaN
             NaN             NaN             NaN
             NaN             NaN             NaN
             NaN             NaN             NaN
             NaN             NaN             NaN
             NaN             NaN             NaN
             NaN             NaN             NaN
             NaN             NaN             NaN
             NaN             NaN             NaN
             NaN             NaN             NaN
             NaN             NaN             NaN
             NaN             NaN             NaN
             NaN             NaN             NaN
             NaN             NaN             NaN
             NaN             NaN             NaN
             NaN             NaN             NaN
             NaN             NaN             NaN
             NaN             NaN             NaN
             NaN             NaN             NaN
             NaN             NaN             NaN
             NaN             NaN             NaN
             NaN             NaN             NaN
             NaN             NaN             NaN
             NaN             NaN             NaN
             NaN             NaN             NaN
             NaN             NaN             NaN
             NaN             NaN             NaN
             NaN             NaN             NaN
             NaN             NaN             NaN
             NaN             NaN             NaN
             NaN             NaN             NaN
             NaN             NaN             NaN
             NaN             NaN             NaN
             NaN             NaN             NaN
             NaN             NaN             NaN
             NaN             NaN             NaN
             NaN             NaN             NaN
             NaN             NaN             NaN
             NaN             NaN             NaN
             NaN             NaN             NaN
             NaN             NaN             NaN
             NaN             NaN             NaN
