Al   Hf   N                             
   1.00000000000000     
     9.5332978955844219   -0.0119261715709683    0.0174777820630183
    -4.7584299470043669    8.2572809403312970   -0.0166476037193390
     0.0934658004322912   -0.0545660462707297   10.2716623553948985
   Al   Hf   N 
    34     2    36
Direct
  0.2225277738921750  0.1046969135914352  0.3208630950778787
  0.1088312418610666  0.2240718321450403  0.1375303329317524
  0.8929831463394390  0.1089172843983497  0.8896447239705711
  0.7757684107736861  0.2254215393942292  0.5717456151129762
  0.5578580182127215  0.1085773877435687  0.3171846110546864
  0.4441018792228528  0.2250997884795052  0.0720234125630829
  0.2254674536733899  0.1100775878826542  0.8222408104950252
  0.1042796457236828  0.2212648681931587  0.6385671685199400
  0.8928799012328867  0.1084901807358582  0.3890173241567343
  0.7748658887697575  0.2253217390022554  0.0688395695050708
  0.5578217353878621  0.1114218423089339  0.8237591726825528
  0.4428156253326281  0.2099455284921958  0.5754365552130264
  0.2077035227314663  0.4434004371424169  0.3839848485532937
  0.1114660325870435  0.5534840527992073  0.1325689523672321
  0.8839832314114279  0.4403543328140250  0.8251472745629125
  0.7932191323676064  0.5586639246299534  0.5754559413401111
  0.4383266019795732  0.5633612058291044  0.1347760277261068
  0.2239925698496925  0.4451295357381126  0.8883656176843953
  0.1106627247073201  0.5540029377002325  0.6430991499875137
  0.8858410981008200  0.4392175709955493  0.3180142163362868
  0.7763344652048048  0.5570315665102845  0.0717515729723049
  0.5624460247577047  0.4385795637638418  0.8261441247660807
  0.2257548256188838  0.7837309312362519  0.3171157181885423
  0.1111054202479779  0.8899595660604471  0.0691095982284963
  0.8926643797381265  0.7760155861564375  0.8222093521489773
  0.7812517420012803  0.8972397007912710  0.6396986452508826
  0.5603983596306715  0.7901105331850036  0.3833024934742970
  0.4439402470179910  0.8942968664446759  0.0738405027842537
  0.2261497540002762  0.7848414901575139  0.8265076063392652
  0.1120759510163343  0.8893753707968479  0.5699802743641316
  0.8976640770130663  0.7786014484786802  0.3206732428836151
  0.7772841948904347  0.8923342155028859  0.1379812250546768
  0.5592003976307888  0.7750225210944839  0.8878151090810059
  0.4426921499936477  0.8971095772765475  0.5801106579435988
  0.5507733594742307  0.4503776525571120  0.3532046203515418
  0.4503338671850618  0.5499527652575890  0.6060689969751879
  0.1084291837599752  0.2246241224193541  0.3256339773990164
  0.2257138128280617  0.1083887351335043  0.1310315403236745
  0.7754380402502792  0.2239565750579260  0.8816715224722893
  0.8928850606240796  0.1084371876390457  0.5766636467211724
  0.4347049478987933  0.1966767634757794  0.3883132015977653
  0.5575819067636353  0.1152243425584388  0.1299471095993903
  0.1089715818172667  0.2263192916142718  0.8276232232872758
  0.2248571952387481  0.1079402363757263  0.6333858554573140
  0.7747339597219489  0.2242701078814947  0.3815102687314546
  0.8924658392283870  0.1088129014875392  0.0775286543471436
  0.4434851793334886  0.2207580481705003  0.8850538763279996
  0.5592015798006349  0.1104655757980018  0.6373184372416920
  0.1094640140542075  0.5552081331256807  0.3241668303002387
  0.2205825980942841  0.4425082327184670  0.0741160808629745
  0.7804874662582810  0.5583268122402066  0.8852728187273587
  0.8866462140022698  0.4394166586706812  0.6362704014291670
  0.4216675474847891  0.5788784370808600  0.3202843151422505
  0.5542955852338085  0.4465655281187943  0.1302358490605125
  0.1148488849416004  0.5554286732894850  0.8359260050130404
  0.1954464902229134  0.4337382473842520  0.5700447171384927
  0.8053670478623243  0.5667918219491838  0.3892008756975679
  0.8803703929891725  0.4407496225174103  0.1280172758646279
  0.4458668951493241  0.5549636677349618  0.8284151341342221
  0.5794806525557532  0.4225021187572979  0.6395448773568285
  0.1114589245701006  0.8900290877430295  0.3826855044466932
  0.2240051748506608  0.7835399807318053  0.1250890398772159
  0.7764457415038011  0.8928093304000753  0.8278977114782308
  0.8947798451587647  0.7764882710107461  0.6337713394760233
  0.4414575456562608  0.8949230520202521  0.3709425575736883
  0.5612685254082259  0.7789267078192784  0.0757670319097502
  0.1103744458580987  0.8915756394336878  0.8829710007836701
  0.2244056581886251  0.7837948817315231  0.6333128819378685
  0.7776051112426452  0.8929415552574633  0.3255516061635763
  0.8935146811837290  0.7752705357244937  0.1313283121273671
  0.4442582959113393  0.8922667444175335  0.8789992285380605
  0.5712576747314629  0.8026246778517048  0.5728003471933191
 
             NaN             NaN             NaN
             NaN             NaN             NaN
             NaN             NaN             NaN
             NaN             NaN             NaN
             NaN             NaN             NaN
             NaN             NaN             NaN
             NaN             NaN             NaN
             NaN             NaN             NaN
             NaN             NaN             NaN
             NaN             NaN             NaN
             NaN             NaN             NaN
             NaN             NaN             NaN
             NaN             NaN             NaN
             NaN             NaN             NaN
             NaN             NaN             NaN
             NaN             NaN             NaN
             NaN             NaN             NaN
             NaN             NaN             NaN
             NaN             NaN             NaN
             NaN             NaN             NaN
             NaN             NaN             NaN
             NaN             NaN             NaN
             NaN             NaN             NaN
             NaN             NaN             NaN
             NaN             NaN             NaN
             NaN             NaN             NaN
             NaN             NaN             NaN
             NaN             NaN             NaN
             NaN             NaN             NaN
             NaN             NaN             NaN
             NaN             NaN             NaN
             NaN             NaN             NaN
             NaN             NaN             NaN
             NaN             NaN             NaN
             NaN             NaN             NaN
             NaN             NaN             NaN
             NaN             NaN             NaN
             NaN             NaN             NaN
             NaN             NaN             NaN
             NaN             NaN             NaN
             NaN             NaN             NaN
             NaN             NaN             NaN
             NaN             NaN             NaN
             NaN             NaN             NaN
             NaN             NaN             NaN
             NaN             NaN             NaN
             NaN             NaN             NaN
             NaN             NaN             NaN
             NaN             NaN             NaN
             NaN             NaN             NaN
             NaN             NaN             NaN
             NaN             NaN             NaN
             NaN             NaN             NaN
             NaN             NaN             NaN
             NaN             NaN             NaN
             NaN             NaN             NaN
             NaN             NaN             NaN
             NaN             NaN             NaN
             NaN             NaN             NaN
             NaN             NaN             NaN
             NaN             NaN             NaN
             NaN             NaN             NaN
             NaN             NaN             NaN
             NaN             NaN             NaN
             NaN             NaN             NaN
             NaN             NaN             NaN
             NaN             NaN             NaN
             NaN             NaN             NaN
             NaN             NaN             NaN
             NaN             NaN             NaN
             NaN             NaN             NaN
             NaN             NaN             NaN
