Al   Hf   N                             
   1.00000000000000     
     9.5330785762376777   -0.0055724744706978    0.0221975393296117
    -4.7556433956078958    8.2616803296789403   -0.0222431099088629
     0.0871035950764358   -0.0499711182878022   10.2829206072496628
   Al   Hf   N 
    34     2    36
Direct
  0.2202959762471266  0.1041006531553544  0.3192388950622487
  0.1092624115334401  0.2251437367029817  0.1361630246420948
  0.8899471095710700  0.1110972377625623  0.8894262429762090
  0.7798201476822437  0.2198971234543107  0.6402097538945785
  0.5532620192891045  0.1094007049982212  0.3174289671923434
  0.4439381654932208  0.2242755869639710  0.0697529977371484
  0.2234951003111166  0.1088455745900137  0.8202058275477213
  0.1039411972445785  0.2224958175512505  0.6373259892230265
  0.8883099611985471  0.1120991672456603  0.3881042471922906
  0.7802059548485736  0.2197504607502954  0.1284098964796979
  0.5530638890979481  0.1105802961803579  0.8305517146851947
  0.4428681036299085  0.2081556560797579  0.5742923428786223
  0.2079631451731326  0.4425633748601174  0.3824200677650884
  0.1170995903014177  0.5608267698477311  0.1332335632924752
  0.8902767931985929  0.4483529191013562  0.8265388463779886
  0.7931246744205339  0.5580050688567099  0.5738476026330751
  0.4388275967318118  0.5618148456889210  0.1322994552764279
  0.2246893369772215  0.4441752863164909  0.8862477169420877
  0.1150887463581238  0.5617404263316815  0.6402241989091929
  0.8908974899165737  0.4474713207737367  0.3154845426057467
  0.7767670484755882  0.5563156923545234  0.0696115670641421
  0.5627726837406920  0.4383054459572945  0.8234152620714860
  0.2252138483943266  0.7756702286034600  0.3865041583493056
  0.1080394730928383  0.8927147586053997  0.0684551018483548
  0.8922112624555544  0.7772932011094049  0.8203769925147504
  0.7783765524775791  0.8965223501118694  0.6373997741541735
  0.5581416682931092  0.7924093814162168  0.3825831944965375
  0.4401520591056391  0.8838738475455672  0.1328476301769439
  0.2255480841747221  0.7751594279408984  0.8898030543766302
  0.1080575791866856  0.8930830369759944  0.5688843491074472
  0.8967562181551545  0.7800985593343575  0.3192957306791016
  0.7756181417848522  0.8910794788218853  0.1362182839029551
  0.5568685608194713  0.7758960745408653  0.8864741729778295
  0.4396616798067208  0.8866108549503895  0.6410610725260191
  0.5506075849116031  0.4504421143171871  0.3528121333207612
  0.4502247950364382  0.5505792151191230  0.6043165835065500
  0.1067691654003264  0.2246262430280692  0.3246038833538241
  0.2253469147793861  0.1086654865633941  0.1304028495494818
  0.7809091101187613  0.2205007844822446  0.8375860937595337
  0.8895125884806619  0.1109850908128772  0.5754367973694298
  0.4325396512950860  0.1953984328068194  0.3878585223872840
  0.5534449208156343  0.1129810462467036  0.1189401201005373
  0.1078381449438883  0.2258926664166188  0.8267123913060778
  0.2240159393292320  0.1086371136960867  0.6322157764834558
  0.7801839670877082  0.2199615962942907  0.3271886160053070
  0.8913962824749005  0.1091088426532981  0.0751403735321366
  0.4412890947325879  0.2209085087585186  0.8839226569333245
  0.5541286786275611  0.1093153348786450  0.6339038615096541
  0.1145564323139002  0.5618741781897970  0.3217412253634474
  0.2206316915993963  0.4429059397441744  0.0728041315624852
  0.7804769319199319  0.5591492316731974  0.8837887901272280
  0.8917119952647321  0.4465313900257681  0.6339680461643881
  0.4221539511944084  0.5783040849292813  0.3189910457161552
  0.5551028920096389  0.4457948770436835  0.1294320374501407
  0.1205807413603768  0.5603500596001174  0.8297822019236556
  0.1956133481404741  0.4342193276237174  0.5688010316068537
  0.8056465871807482  0.5679337466809125  0.3878961455362036
  0.8871453213721742  0.4471813322765381  0.1217448070453604
  0.4466822133777991  0.5541620777880992  0.8275603739858944
  0.5789996971326024  0.4224342313913390  0.6369605531306293
  0.1080391699958311  0.8928142809107303  0.3814692335964263
  0.2242426888468773  0.7764097146236397  0.0760776855590515
  0.7751395897790331  0.8929399569445221  0.8268399347942178
  0.8925410881246325  0.7766740431847672  0.6323248271654520
  0.4390206555407793  0.8860793183636341  0.3214154909760555
  0.5579149496401530  0.7798768023205658  0.0729379908793289
  0.1085283714989835  0.8925351766757461  0.8805103811376085
  0.2253008323256905  0.7762427924771073  0.5762563030569653
  0.7760922679736771  0.8934981030419326  0.3247047237515492
  0.8921109683792264  0.7750253857030835  0.1303477547312137
  0.4408494484828238  0.8804574989982656  0.8305954732322038
  0.5664830490777806  0.8052173643971782  0.5691277319424253
 
             NaN             NaN             NaN
             NaN             NaN             NaN
             NaN             NaN             NaN
             NaN             NaN             NaN
             NaN             NaN             NaN
             NaN             NaN             NaN
             NaN             NaN             NaN
             NaN             NaN             NaN
             NaN             NaN             NaN
             NaN             NaN             NaN
             NaN             NaN             NaN
             NaN             NaN             NaN
             NaN             NaN             NaN
             NaN             NaN             NaN
             NaN             NaN             NaN
             NaN             NaN             NaN
             NaN             NaN             NaN
             NaN             NaN             NaN
             NaN             NaN             NaN
             NaN             NaN             NaN
             NaN             NaN             NaN
             NaN             NaN             NaN
             NaN             NaN             NaN
             NaN             NaN             NaN
             NaN             NaN             NaN
             NaN             NaN             NaN
             NaN             NaN             NaN
             NaN             NaN             NaN
             NaN             NaN             NaN
             NaN             NaN             NaN
             NaN             NaN             NaN
             NaN             NaN             NaN
             NaN             NaN             NaN
             NaN             NaN             NaN
             NaN             NaN             NaN
             NaN             NaN             NaN
             NaN             NaN             NaN
             NaN             NaN             NaN
             NaN             NaN             NaN
             NaN             NaN             NaN
             NaN             NaN             NaN
             NaN             NaN             NaN
             NaN             NaN             NaN
             NaN             NaN             NaN
             NaN             NaN             NaN
             NaN             NaN             NaN
             NaN             NaN             NaN
             NaN             NaN             NaN
             NaN             NaN             NaN
             NaN             NaN             NaN
             NaN             NaN             NaN
             NaN             NaN             NaN
             NaN             NaN             NaN
             NaN             NaN             NaN
             NaN             NaN             NaN
             NaN             NaN             NaN
             NaN             NaN             NaN
             NaN             NaN             NaN
             NaN             NaN             NaN
             NaN             NaN             NaN
             NaN             NaN             NaN
             NaN             NaN             NaN
             NaN             NaN             NaN
             NaN             NaN             NaN
             NaN             NaN             NaN
             NaN             NaN             NaN
             NaN             NaN             NaN
             NaN             NaN             NaN
             NaN             NaN             NaN
             NaN             NaN             NaN
             NaN             NaN             NaN
             NaN             NaN             NaN
