Al   Hf   N                             
   1.00000000000000     
     9.5009724306819869   -0.0155308254867129    0.0114548403530962
    -4.7484685937316078    8.2292630079045210   -0.0113387564725498
     0.0717765520144833   -0.0416877033692271   10.3568765494383648
   Al   Hf   N 
    34     2    36
Direct
  0.2222040911660370  0.1043193527769933  0.3189356592583087
  0.1087109926003462  0.2253322557948725  0.1367285478614546
  0.8926899763979147  0.1083325312529648  0.8890450150431041
  0.7757571848892689  0.2252653739220299  0.5700911003358737
  0.5603628370892213  0.1142202319635557  0.3166840452138523
  0.4448516032356694  0.2240391574689242  0.0707669305695855
  0.2251150705261648  0.1089322156212355  0.8208234959876233
  0.1041263717476850  0.2224427466841175  0.6386182491117228
  0.8929981793272853  0.1080244640146841  0.3884011021355711
  0.7752457997817924  0.2257766513713382  0.0674761689126330
  0.5598043492457845  0.1157040856703103  0.8216756605212586
  0.4431771936893660  0.2084977375183721  0.5746281858314938
  0.2083784248160165  0.4433754826662279  0.3829155926325344
  0.1155783000460833  0.5600409158632301  0.1358924446147609
  0.8853184931530848  0.4412182383212045  0.8216756498150318
  0.7925247561584046  0.5578453514949586  0.5746281701664280
  0.4383142452505446  0.5627084480994277  0.1320771757240150
  0.2239133493322427  0.4450682575131843  0.8867826395817284
  0.1141135637098215  0.5605736428162307  0.6408793776309433
  0.8868023408237774  0.4406598608800834  0.3166840437520611
  0.7769832861718630  0.5561709016897289  0.0707669406184416
  0.5625713214105432  0.4384514299036070  0.8254748815766041
  0.2250556240468280  0.7759670182320043  0.3875251603074132
  0.1081078187479250  0.8929147591036489  0.0684920475090076
  0.8920904004097741  0.7759075299802342  0.8208234573766999
  0.7785799044504497  0.8968962821868429  0.6386181968735952
  0.5576469733292672  0.7926440200559360  0.3829155898981653
  0.4409816245318718  0.8854441479532404  0.1358924347697489
  0.2255693438384125  0.7754532542311133  0.8900786990659501
  0.1077963741696260  0.8932263284629905  0.5691831012738819
  0.8967032904056711  0.7788185105979296  0.3189356580472829
  0.7756903321967212  0.8923115715030104  0.1367285854780391
  0.5559542136024361  0.7771090697286914  0.8867826080703246
  0.4404490735866005  0.8869089935658956  0.6408793734694809
  0.5501651350725077  0.4508572903863126  0.3520161571113631
  0.4507726204399310  0.5502498542851330  0.6054766375064480
  0.1081407557503471  0.2256833354319120  0.3232404084108972
  0.2264038306242690  0.1087270466665436  0.1316088101202815
  0.7760652113134110  0.2249574293509585  0.8817303072887848
  0.8933137795325953  0.1077088376410334  0.5745217059044040
  0.4340399685530626  0.1955375342424793  0.3893478323993552
  0.5594690659054077  0.1184888842440693  0.1290161580981057
  0.1085122721881913  0.2266254540745064  0.8259445698901121
  0.2254883016790701  0.1083807558156430  0.6343135315415992
  0.7757150302812679  0.2253077153646255  0.3816263202686713
  0.8927973871221067  0.1082250909471659  0.0753492790675311
  0.4430900379664007  0.2195437567671131  0.8852577473487037
  0.5611358638333095  0.1131608229642824  0.6351912676771175
  0.1130574422148211  0.5613602348208855  0.3223796183093460
  0.2194063190905972  0.4433130551967041  0.0723018970112058
  0.7814790276979743  0.5579327018102336  0.8852577571950234
  0.8878617026799047  0.4398867950522140  0.6351912801256971
  0.4219873048308351  0.5790350972810980  0.3174792154056161
  0.5546027473035856  0.4464198513497414  0.1296262987937323
  0.1183604733460341  0.5596818629459496  0.8285474830609776
  0.1954395866685114  0.4342710728249579  0.5681899963383763
  0.8054849770775583  0.5669826663116914  0.3893478058889341
  0.8825335555119784  0.4415534737612721  0.1290161727747528
  0.4462820425775776  0.5547403474438348  0.8278921799452051
  0.5789432442852604  0.4220793946409471  0.6400858502161056
  0.1074947989337720  0.8935279923108366  0.3830627417018512
  0.2247339037299144  0.7762885274823448  0.0758229469813836
  0.7743969849879004  0.8925101388149539  0.8259445262432814
  0.8926419903928892  0.7755344013175668  0.6343134737663546
  0.4396623731255097  0.8879651252708654  0.3223795974152333
  0.5577095124536927  0.7816162260952539  0.0723018789902035
  0.1080107730147751  0.8930119739315466  0.8821895529333007
  0.2250841163932191  0.7759384753295037  0.5759689199802389
  0.7753391326258929  0.8928817330664155  0.3232404607448773
  0.8922956032732676  0.7746188122559615  0.1316087913168897
  0.4413407260563127  0.8826621200810629  0.8285475171398370
  0.5667514406400799  0.8055828229375323  0.5681899855352656
 
             NaN             NaN             NaN
             NaN             NaN             NaN
             NaN             NaN             NaN
             NaN             NaN             NaN
             NaN             NaN             NaN
             NaN             NaN             NaN
             NaN             NaN             NaN
             NaN             NaN             NaN
             NaN             NaN             NaN
             NaN             NaN             NaN
             NaN             NaN             NaN
             NaN             NaN             NaN
             NaN             NaN             NaN
             NaN             NaN             NaN
             NaN             NaN             NaN
             NaN             NaN             NaN
             NaN             NaN             NaN
             NaN             NaN             NaN
             NaN             NaN             NaN
             NaN             NaN             NaN
             NaN             NaN             NaN
             NaN             NaN             NaN
             NaN             NaN             NaN
             NaN             NaN             NaN
             NaN             NaN             NaN
             NaN             NaN             NaN
             NaN             NaN             NaN
             NaN             NaN             NaN
             NaN             NaN             NaN
             NaN             NaN             NaN
             NaN             NaN             NaN
             NaN             NaN             NaN
             NaN             NaN             NaN
             NaN             NaN             NaN
             NaN             NaN             NaN
             NaN             NaN             NaN
             NaN             NaN             NaN
             NaN             NaN             NaN
             NaN             NaN             NaN
             NaN             NaN             NaN
             NaN             NaN             NaN
             NaN             NaN             NaN
             NaN             NaN             NaN
             NaN             NaN             NaN
             NaN             NaN             NaN
             NaN             NaN             NaN
             NaN             NaN             NaN
             NaN             NaN             NaN
             NaN             NaN             NaN
             NaN             NaN             NaN
             NaN             NaN             NaN
             NaN             NaN             NaN
             NaN             NaN             NaN
             NaN             NaN             NaN
             NaN             NaN             NaN
             NaN             NaN             NaN
             NaN             NaN             NaN
             NaN             NaN             NaN
             NaN             NaN             NaN
             NaN             NaN             NaN
             NaN             NaN             NaN
             NaN             NaN             NaN
             NaN             NaN             NaN
             NaN             NaN             NaN
             NaN             NaN             NaN
             NaN             NaN             NaN
             NaN             NaN             NaN
             NaN             NaN             NaN
             NaN             NaN             NaN
             NaN             NaN             NaN
             NaN             NaN             NaN
             NaN             NaN             NaN
