Al   Hf   N                             
   1.00000000000000     
     9.5634507453010542    0.0030586051469256    0.0115470152901314
    -4.8184056320372601    8.2413780906927894   -0.0277836231429978
     0.0895916463224115   -0.0390966111495978   10.2005322534555738
   Al   Hf   N 
    34     2    36
Direct
  0.2137867243260652  0.1081936808450782  0.3891061788618787
  0.1088851771708728  0.2226280073370140  0.1346877334685660
  0.8885700065858020  0.1119140385194792  0.8872972125620366
  0.7787772206322364  0.2230103193643465  0.6380836076368694
  0.5618936357237980  0.1020626398360907  0.3879451437721156
  0.4465778460050796  0.2285693737656646  0.0690058368046387
  0.2170256435871129  0.1110816348329178  0.8829385419163747
  0.1037895062213200  0.2195921873643797  0.6369512129052332
  0.8894178405777270  0.1102535239774817  0.3863814635170570
  0.7780572738518693  0.2235494345351024  0.1375001194503713
  0.5600541964068824  0.1070586256140065  0.8865185010379065
  0.4458829542259949  0.2145067813254496  0.5744727241185978
  0.2097783986713872  0.4421405095766849  0.3807867772753425
  0.1083349402838582  0.5558575468281085  0.1352353169656551
  0.8935872154410683  0.4418080797451864  0.8876898100151102
  0.7882152136345375  0.5605156214373948  0.5706587356677127
  0.4353444178184170  0.5639340476706483  0.1287892118611183
  0.2238349460601533  0.4444618707422605  0.8840472458392120
  0.1072094764648908  0.5551139406491090  0.6383190715089249
  0.8984339557228620  0.4406138515724036  0.3881257152149375
  0.7745321061968542  0.5593849245912774  0.0678649699653961
  0.5637352989995866  0.4375600843227216  0.8228371661114842
  0.2234547044822212  0.7784835319983126  0.3842147765685783
  0.1140464792758384  0.8910269675078849  0.1112276640878298
  0.8881247847405820  0.7745643482513952  0.8207250349815762
  0.7775828018520964  0.8968127163069585  0.6355207992733884
  0.5579800982431550  0.7899259640756181  0.3809389681118421
  0.4445113994216165  0.8919390366027909  0.1358016833586399
  0.2241406067137581  0.7769369523859143  0.8854749980852904
  0.1137309799028302  0.8887308165790181  0.6206100338369682
  0.8951254659419076  0.7795062968691393  0.3170990063011351
  0.7744905771675963  0.8934173485948749  0.1329018503625280
  0.5559411316323357  0.7762878246774755  0.8843368213914458
  0.4446390447142878  0.8920272391337017  0.6391523161856383
  0.5507224732878476  0.4496148146070468  0.3441834911940728
  0.4503090190189908  0.5483159839970584  0.6026056632870641
  0.1097321490198326  0.2210681263361789  0.3233467038348763
  0.2164947544879495  0.1130440135858861  0.0762163119931567
  0.7797314103593408  0.2225623073797201  0.8266741353852100
  0.8888550687269842  0.1112593055970284  0.5750222951003581
  0.4389810837130141  0.2009738838473637  0.3788994808815933
  0.5595667095910686  0.1107407642229814  0.0780597237446631
  0.1093738700282080  0.2227012077975427  0.8253282529133176
  0.2157694724796143  0.1111422779715371  0.5834107086076541
  0.7806427411407524  0.2215972913954570  0.3267484073486169
  0.8885938194138878  0.1128346260505693  0.0754479423561169
  0.4465889064627815  0.2225942148874198  0.8770627748499399
  0.5616452653768867  0.1048582086643263  0.5792516991526854
  0.1089382441219652  0.5572209069612081  0.3222477554789610
  0.2172227247734337  0.4433497232599647  0.0723997745456250
  0.7793921452209926  0.5593942146547281  0.8806115045757745
  0.8945067302631647  0.4397634966912530  0.5781142252839757
  0.4211190013167473  0.5782232607201220  0.3163952427999740
  0.5534262901302480  0.4481246878409353  0.1246842968042560
  0.1128942806944858  0.5555482348867723  0.8264615252253540
  0.1959312303341490  0.4333996537620853  0.5691734314799056
  0.8018774902975928  0.5685392116782974  0.3810673511912777
  0.8894255996763060  0.4418135590330334  0.0779407609083293
  0.4459511362449753  0.5538963821081504  0.8272831418731176
  0.5810734688922441  0.4219888013170449  0.6389158810671404
  0.1155600301605546  0.8913927985004708  0.3418555477346752
  0.2242897887926391  0.7769544592001331  0.0750431561302850
  0.7751300077237545  0.8932959107141683  0.8269554593805182
  0.8868984046087978  0.7747311818175591  0.6292563466751626
  0.4438716212648774  0.8911346498880339  0.3225686256679832
  0.5558996866754530  0.7820454801279205  0.0720408033618940
  0.1145567572444158  0.8889231017468896  0.8406373184202333
  0.2245620399607536  0.7761357952363396  0.5766222797297030
  0.7760318274941618  0.8929078811228213  0.3232407239033709
  0.8877170267394955  0.7758009466801936  0.1241515734303249
  0.4448060792758662  0.8868267364306380  0.8267741213623563
  0.5651813777707029  0.8025409343851668  0.5690552161740422
 
             NaN             NaN             NaN
             NaN             NaN             NaN
             NaN             NaN             NaN
             NaN             NaN             NaN
             NaN             NaN             NaN
             NaN             NaN             NaN
             NaN             NaN             NaN
             NaN             NaN             NaN
             NaN             NaN             NaN
             NaN             NaN             NaN
             NaN             NaN             NaN
             NaN             NaN             NaN
             NaN             NaN             NaN
             NaN             NaN             NaN
             NaN             NaN             NaN
             NaN             NaN             NaN
             NaN             NaN             NaN
             NaN             NaN             NaN
             NaN             NaN             NaN
             NaN             NaN             NaN
             NaN             NaN             NaN
             NaN             NaN             NaN
             NaN             NaN             NaN
             NaN             NaN             NaN
             NaN             NaN             NaN
             NaN             NaN             NaN
             NaN             NaN             NaN
             NaN             NaN             NaN
             NaN             NaN             NaN
             NaN             NaN             NaN
             NaN             NaN             NaN
             NaN             NaN             NaN
             NaN             NaN             NaN
             NaN             NaN             NaN
             NaN             NaN             NaN
             NaN             NaN             NaN
             NaN             NaN             NaN
             NaN             NaN             NaN
             NaN             NaN             NaN
             NaN             NaN             NaN
             NaN             NaN             NaN
             NaN             NaN             NaN
             NaN             NaN             NaN
             NaN             NaN             NaN
             NaN             NaN             NaN
             NaN             NaN             NaN
             NaN             NaN             NaN
             NaN             NaN             NaN
             NaN             NaN             NaN
             NaN             NaN             NaN
             NaN             NaN             NaN
             NaN             NaN             NaN
             NaN             NaN             NaN
             NaN             NaN             NaN
             NaN             NaN             NaN
             NaN             NaN             NaN
             NaN             NaN             NaN
             NaN             NaN             NaN
             NaN             NaN             NaN
             NaN             NaN             NaN
             NaN             NaN             NaN
             NaN             NaN             NaN
             NaN             NaN             NaN
             NaN             NaN             NaN
             NaN             NaN             NaN
             NaN             NaN             NaN
             NaN             NaN             NaN
             NaN             NaN             NaN
             NaN             NaN             NaN
             NaN             NaN             NaN
             NaN             NaN             NaN
             NaN             NaN             NaN
