Al   Hf   N                             
   1.00000000000000     
     9.5306894599220779   -0.0121505728154387    0.0197044621751520
    -4.7738482631978840    8.2408097732809455   -0.0232271414214697
     0.0860901847768785   -0.0437046772414204   10.2621607876441683
   Al   Hf   N 
    34     2    36
Direct
  0.2204288039585614  0.1037102870636353  0.3172848159058336
  0.1075373769953366  0.2252154153107437  0.1346397551675822
  0.8888672990480833  0.1111358314904435  0.8878990845573893
  0.7773593318269231  0.2218681043672880  0.6390656419289469
  0.5598391580839939  0.1028421041837620  0.3896648336791604
  0.4410504012047040  0.2261522912539552  0.0701168292813623
  0.2236955745897799  0.1086290115366865  0.8201278619296761
  0.1035944958520913  0.2226404320798513  0.6367807120158767
  0.8899823804884142  0.1106405620957052  0.3874279192972999
  0.7764534693191355  0.2211152628028297  0.1352794196162742
  0.5579775730593670  0.1069166081257561  0.8892423103018032
  0.4395280986737498  0.2122129462443019  0.5733589101992941
  0.2096567305725353  0.4423704307600688  0.3821234847525678
  0.1107538601781481  0.5577039858657448  0.1330422558617249
  0.8923978622017598  0.4428332040367265  0.8753127178867360
  0.7898983831350084  0.5588307829272291  0.5745521321127752
  0.4374533297888610  0.5639261121981153  0.1299505994300389
  0.2245498823457197  0.4441312419272186  0.8854510292425800
  0.1101227150257610  0.5589952472578859  0.6393281581010605
  0.8958430010826592  0.4416958983523175  0.3714196517763143
  0.7758547625718504  0.5576245382763290  0.0692423487834630
  0.5623585717516105  0.4372257687914595  0.8239537911388010
  0.2262479351344377  0.7763443481432366  0.3856746962621734
  0.1083327596602359  0.8917920964964124  0.0675400492199906
  0.8920898745387288  0.7768396508459647  0.8195969465637127
  0.7787469645569403  0.8968419021638571  0.6365720012194530
  0.5586115563392459  0.7909548831160008  0.3820216309916989
  0.4438697390281224  0.8917774341447423  0.1362734208490416
  0.2267713383022562  0.7764932966275769  0.8879695946718217
  0.1082270314492544  0.8920162365923801  0.5683782152310622
  0.8970579883821324  0.7801796748400708  0.3174383078689165
  0.7752849649028142  0.8919369212043724  0.1345110311367619
  0.5567544752848849  0.7771904400385986  0.8850784492547332
  0.4441092657223906  0.8938397858112067  0.6391686577567048
  0.5498803860852109  0.4505523930919381  0.3482422521475392
  0.4512487157130604  0.5503677013212144  0.6048902678033687
  0.1068579982406922  0.2245790586118165  0.3233523573196035
  0.2238309922004981  0.1081853817526908  0.1292674610156829
  0.7762651496230168  0.2192525290507103  0.8277396960263409
  0.8898899303954092  0.1108570566207796  0.5745543185060117
  0.4306057194066343  0.1987251859116655  0.3839558893831939
  0.5582827102390030  0.1099909452774917  0.0777832627375986
  0.1070215239905885  0.2256104892462612  0.8263261355369313
  0.2233076296683481  0.1076100568383121  0.6325626245286166
  0.7774585018580271  0.2194976826415961  0.3252076517194152
  0.8891796226896922  0.1104931957986360  0.0746679801635500
  0.4394880183550389  0.2214792101753660  0.8827093176830965
  0.5614174197930988  0.1062565716598156  0.5781377234390246
  0.1110463642264987  0.5594276991901210  0.3203701466097363
  0.2196714555983268  0.4432756780597249  0.0720021656164388
  0.7788817954589552  0.5603632189092675  0.8817682600435848
  0.8945009415714786  0.4411559563686631  0.5921934656799164
  0.4213809874313921  0.5792916398327966  0.3165727064296821
  0.5544919495115271  0.4469681009353209  0.1279261713398721
  0.1163567525342350  0.5585728747658465  0.8272938623708271
  0.1973405497615362  0.4350752693507746  0.5688524971102176
  0.8020263537970306  0.5694681265902584  0.3849337764215946
  0.8895416249940391  0.4414197776938855  0.0829359967701543
  0.4463009333606513  0.5550810332320473  0.8277670890843875
  0.5792612191939316  0.4203752862246576  0.6401138300366388
  0.1082947703413781  0.8922350925083754  0.3804877599986805
  0.2260261271119640  0.7769029961925207  0.0763743325436385
  0.7752918468009651  0.8930108588048916  0.8263060813082914
  0.8926846951218637  0.7767527232512451  0.6319780710579974
  0.4436215695482214  0.8927125745043845  0.3222623349237481
  0.5571433371659290  0.7820727515061110  0.0721865348029473
  0.1084895863961050  0.8918101963538714  0.8799073099325943
  0.2264565789793497  0.7766909115841115  0.5762721824048401
  0.7763676747400718  0.8932126944835883  0.3234171185514642
  0.8921178053156937  0.7754431630035706  0.1292243607560591
  0.4444877073221309  0.8885126783606502  0.8262474626791135
  0.5665101046388915  0.8045262518861670  0.5691771608315175
 
             NaN             NaN             NaN
             NaN             NaN             NaN
             NaN             NaN             NaN
             NaN             NaN             NaN
             NaN             NaN             NaN
             NaN             NaN             NaN
             NaN             NaN             NaN
             NaN             NaN             NaN
             NaN             NaN             NaN
             NaN             NaN             NaN
             NaN             NaN             NaN
             NaN             NaN             NaN
             NaN             NaN             NaN
             NaN             NaN             NaN
             NaN             NaN             NaN
             NaN             NaN             NaN
             NaN             NaN             NaN
             NaN             NaN             NaN
             NaN             NaN             NaN
             NaN             NaN             NaN
             NaN             NaN             NaN
             NaN             NaN             NaN
             NaN             NaN             NaN
             NaN             NaN             NaN
             NaN             NaN             NaN
             NaN             NaN             NaN
             NaN             NaN             NaN
             NaN             NaN             NaN
             NaN             NaN             NaN
             NaN             NaN             NaN
             NaN             NaN             NaN
             NaN             NaN             NaN
             NaN             NaN             NaN
             NaN             NaN             NaN
             NaN             NaN             NaN
             NaN             NaN             NaN
             NaN             NaN             NaN
             NaN             NaN             NaN
             NaN             NaN             NaN
             NaN             NaN             NaN
             NaN             NaN             NaN
             NaN             NaN             NaN
             NaN             NaN             NaN
             NaN             NaN             NaN
             NaN             NaN             NaN
             NaN             NaN             NaN
             NaN             NaN             NaN
             NaN             NaN             NaN
             NaN             NaN             NaN
             NaN             NaN             NaN
             NaN             NaN             NaN
             NaN             NaN             NaN
             NaN             NaN             NaN
             NaN             NaN             NaN
             NaN             NaN             NaN
             NaN             NaN             NaN
             NaN             NaN             NaN
             NaN             NaN             NaN
             NaN             NaN             NaN
             NaN             NaN             NaN
             NaN             NaN             NaN
             NaN             NaN             NaN
             NaN             NaN             NaN
             NaN             NaN             NaN
             NaN             NaN             NaN
             NaN             NaN             NaN
             NaN             NaN             NaN
             NaN             NaN             NaN
             NaN             NaN             NaN
             NaN             NaN             NaN
             NaN             NaN             NaN
             NaN             NaN             NaN
