Al   Hf   N                             
   1.00000000000000     
     9.5187813892291029   -0.0114082861228013    0.0255269743014979
    -4.7560206525311077    8.2469475776736321   -0.0254504841804203
     0.0368886400234724   -0.0185331336401178   10.0486465985950417
   Al   Hf   N 
    34     2    36
Direct
  0.2179217541941227  0.1053748913456261  0.3145628381022689
  0.1090611120918155  0.2203508889978210  0.0634326946427564
  0.8897258289645507  0.1111303750154562  0.8122212965607361
  0.7782785819879052  0.2224704073388182  0.5663353881273423
  0.5561903837507529  0.1069126128521347  0.3129875789015770
  0.4432479196048433  0.2218685656349493  0.0645307778001651
  0.2213633597840143  0.1102357107030372  0.8165562121152306
  0.1088141764980364  0.2188373715701530  0.5624528140222367
  0.8887194740892852  0.1119190204851890  0.3132395097159133
  0.7779978644545196  0.2228082363634982  0.0633986558632245
  0.5563222259443990  0.1107721464531650  0.8153097651340602
  0.4404388492941038  0.2107110347111671  0.5699725524218167
  0.2098769448815005  0.4430477919500788  0.3085583017376550
  0.1091324517238093  0.5575596903007281  0.0629197763713520
  0.8900633946268783  0.4445254043451214  0.8153329859071903
  0.7898333417470269  0.5601410123687742  0.5699449539276742
  0.4421581559587793  0.5585416147919702  0.0784621006032253
  0.2156626299894597  0.4410544649496444  0.8176581177052782
  0.1061937377541469  0.5540923024974376  0.5637004350774575
  0.8937310462068950  0.4444982468435796  0.3130021447852940
  0.7787844424230812  0.5574508365661330  0.0645207074973939
  0.5605465350366359  0.4401673179500278  0.8195735950505423
  0.2228131396268580  0.7778117142068481  0.3157975431873368
  0.1116847530281220  0.8889580988478869  0.0647339793871922
  0.8904343489687889  0.7793608854871366  0.8165158837922988
  0.7818287703344211  0.8919334443529650  0.5624048877424244
  0.5575530888769862  0.7907495994209199  0.3084695025323541
  0.4432004922017185  0.8916376452728372  0.0628722925870306
  0.2226786822877784  0.7781247316611015  0.8139471418609077
  0.1117534099901292  0.8887828884301570  0.5655189077959832
  0.8951054608423306  0.7826382963074181  0.3145320470870558
  0.7803426707187100  0.8916860641708411  0.0633622916435712
  0.5597377413284264  0.7851757524635801  0.8175570494225823
  0.4465959356679221  0.8945234929593795  0.5636382241202043
  0.5537174054978777  0.4467331186960379  0.3416502607738181
  0.4470981693356464  0.5535909996338901  0.5742476370671596
  0.1105348139100855  0.2218707469039671  0.3700129788489548
  0.2213920592633869  0.1112610164681200  0.1234454303207713
  0.7786403640877779  0.2222212789376456  0.8726343605285010
  0.8897516096554838  0.1109347992714618  0.6211450421454785
  0.4317586419050201  0.1932095569621168  0.3794212827863745
  0.5561423607356701  0.1130814913395710  0.1223411270558472
  0.1097156295595454  0.2200238947542417  0.8740188196496348
  0.2195796730300899  0.1090231732240383  0.6261580691341209
  0.7776667261647674  0.2230259693515535  0.3729850340127001
  0.8882767445765438  0.1124025822710379  0.1227236933084797
  0.4430654663405065  0.2191692799373612  0.8751012967594107
  0.5568956844967872  0.1095191271909997  0.6259422219327959
  0.1088209597892984  0.5558890775969090  0.3729953143494882
  0.2154068996705263  0.4423444773609830  0.1171089041615190
  0.7815501145128962  0.5576804149496795  0.8750883997488899
  0.8911460341689192  0.4438149923472778  0.6259617656921037
  0.4246923991426286  0.5759639586524870  0.3485544025034670
  0.5543900281532075  0.4462117092352855  0.1173363755765209
  0.1109897133436846  0.5577510307214624  0.8738817638292673
  0.1960912673463113  0.4312113918194882  0.6282760756729147
  0.8072552131503770  0.5687910627784163  0.3793846220048636
  0.8876291764763167  0.4446125976893853  0.1223539520579493
  0.4452654149085760  0.5555877451419349  0.8533781125993727
  0.5742443837331166  0.4262797969168872  0.6307202089964221
  0.1114887847306250  0.8889918565804109  0.3743491811059627
  0.2221727288635265  0.7785397759541866  0.1240813117299453
  0.7807580112764043  0.8911272153998340  0.8739527645248941
  0.8914494075443926  0.7809672022536702  0.6261121081371144
  0.4447494149005919  0.8918158272370462  0.3729419520537576
  0.5583096733254322  0.7852600626439781  0.1170416937879963
  0.1119325257749253  0.8887457738695801  0.8742032093667547
  0.2231951218046007  0.7774690602566565  0.6218998341716713
  0.7787015359039628  0.8901082701337373  0.3699765107144231
  0.8893189206528760  0.7792560359438951  0.1234137015761334
  0.4430715391970850  0.8898579161439031  0.8738399466952060
  0.5694120472949820  0.8045704375633349  0.6281842788604948
 
             NaN             NaN             NaN
             NaN             NaN             NaN
             NaN             NaN             NaN
             NaN             NaN             NaN
             NaN             NaN             NaN
             NaN             NaN             NaN
             NaN             NaN             NaN
             NaN             NaN             NaN
             NaN             NaN             NaN
             NaN             NaN             NaN
             NaN             NaN             NaN
             NaN             NaN             NaN
             NaN             NaN             NaN
             NaN             NaN             NaN
             NaN             NaN             NaN
             NaN             NaN             NaN
             NaN             NaN             NaN
             NaN             NaN             NaN
             NaN             NaN             NaN
             NaN             NaN             NaN
             NaN             NaN             NaN
             NaN             NaN             NaN
             NaN             NaN             NaN
             NaN             NaN             NaN
             NaN             NaN             NaN
             NaN             NaN             NaN
             NaN             NaN             NaN
             NaN             NaN             NaN
             NaN             NaN             NaN
             NaN             NaN             NaN
             NaN             NaN             NaN
             NaN             NaN             NaN
             NaN             NaN             NaN
             NaN             NaN             NaN
             NaN             NaN             NaN
             NaN             NaN             NaN
             NaN             NaN             NaN
             NaN             NaN             NaN
             NaN             NaN             NaN
             NaN             NaN             NaN
             NaN             NaN             NaN
             NaN             NaN             NaN
             NaN             NaN             NaN
             NaN             NaN             NaN
             NaN             NaN             NaN
             NaN             NaN             NaN
             NaN             NaN             NaN
             NaN             NaN             NaN
             NaN             NaN             NaN
             NaN             NaN             NaN
             NaN             NaN             NaN
             NaN             NaN             NaN
             NaN             NaN             NaN
             NaN             NaN             NaN
             NaN             NaN             NaN
             NaN             NaN             NaN
             NaN             NaN             NaN
             NaN             NaN             NaN
             NaN             NaN             NaN
             NaN             NaN             NaN
             NaN             NaN             NaN
             NaN             NaN             NaN
             NaN             NaN             NaN
             NaN             NaN             NaN
             NaN             NaN             NaN
             NaN             NaN             NaN
             NaN             NaN             NaN
             NaN             NaN             NaN
             NaN             NaN             NaN
             NaN             NaN             NaN
             NaN             NaN             NaN
             NaN             NaN             NaN
