Al   Hf   N                             
   1.00000000000000     
     9.5330664579815441   -0.0108773924906501    0.0201869932373055
    -4.7723753674416214    8.2429308647762909   -0.0230366837093522
     0.0862101643122612   -0.0436918297930726   10.2645954259108070
   Al   Hf   N 
    34     2    36
Direct
  0.2204131125939321  0.1037096278420140  0.3172702856472099
  0.1075318981083556  0.2252068989859791  0.1347645053853543
  0.8888957965090597  0.1110419003089016  0.8882273482183303
  0.7766258536821419  0.2204069609124897  0.6392072692863164
  0.5596032450519370  0.1026672532675639  0.3899324951380728
  0.4410391163044312  0.2263009708924288  0.0702210559619179
  0.2236723860898220  0.1086192269763382  0.8201446454605356
  0.1035388237332871  0.2226754370093263  0.6369292525479725
  0.8900406094485727  0.1106760620831563  0.3876844235004055
  0.7753856791616505  0.2192401233762417  0.1347053296297779
  0.5577054685594536  0.1066222595074763  0.8896159999823199
  0.4394585772483658  0.2122756601372046  0.5734286927567627
  0.2094899078821888  0.4423083915086170  0.3823829509632453
  0.1124903663459418  0.5586177054002479  0.1324599057946505
  0.8910297157562398  0.4444045454711802  0.8534679058352713
  0.7910245066498438  0.5578566747585986  0.5748011488655084
  0.4376697833409893  0.5638517145885529  0.1300577692785563
  0.2246604151074355  0.4441311420827121  0.8857909731632170
  0.1120965230984906  0.5601894029021846  0.6394757757376096
  0.8935185454526385  0.4433584051192829  0.3468374512558879
  0.7766516579561259  0.5566267336872077  0.0693115784508064
  0.5620250978353919  0.4371702304809851  0.8240211018477450
  0.2265102298790983  0.7766310415209715  0.3860035341031988
  0.1081642543188293  0.8917497689514631  0.0676473458554188
  0.8921152059485767  0.7769967103295977  0.8196346167829409
  0.7787927982014108  0.8967148602619892  0.6366266019684268
  0.5585771971247773  0.7908916757857649  0.3820351384590756
  0.4438193573233996  0.8917440772111339  0.1364444101584427
  0.2271251546234698  0.7767847798767025  0.8883545623605964
  0.1080446889019401  0.8919879152758378  0.5684736760729687
  0.8970651029645584  0.7802227739322931  0.3176859825950093
  0.7752773781380150  0.8916482410529850  0.1345795741969179
  0.5567392441847973  0.7772313651007610  0.8851284310669646
  0.4441709762781921  0.8939219027309163  0.6393291021684410
  0.5498034529193321  0.4506283161484012  0.3486067213912804
  0.4512863729656755  0.5504806504173549  0.6048733981291711
  0.1067685376818878  0.2246150087576932  0.3234307729171743
  0.2237823645549437  0.1081695174685131  0.1292932440411051
  0.7751273338794499  0.2169270964665631  0.8289497420688595
  0.8899222290344313  0.1108879172563647  0.5746352548354249
  0.4305299782184110  0.1987526432861487  0.3840054643248289
  0.5577578614279542  0.1096548593934735  0.0778595984414083
  0.1069847299503103  0.2256575417237852  0.8263813304054920
  0.2232485845265343  0.1076170235113162  0.6325732987761462
  0.7765363197056356  0.2175680137217840  0.3259165446269642
  0.8892656229024635  0.1102607345777847  0.0747946415686010
  0.4394458906746496  0.2214665598676577  0.8827352869575718
  0.5612308805650553  0.1062191934127277  0.5781745666162865
  0.1133927516589200  0.5607487023497200  0.3210025411896214
  0.2198495237898205  0.4431565264982748  0.0721223620418019
  0.7791767995346587  0.5598209361548736  0.8824978871037112
  0.8931700595218272  0.4431898405539430  0.6118844973643953
  0.4214316520223518  0.5791998703544127  0.3167020453303387
  0.5545284444347731  0.4470291799071457  0.1279614107967915
  0.1189116169571720  0.5597710349683134  0.8284618001028614
  0.1972273447518244  0.4350426406120390  0.5687908486898589
  0.8029198669250405  0.5686608805543050  0.3862775374380549
  0.8880688470669256  0.4425947826943807  0.0985154866661529
  0.4464594670641039  0.5551160933662721  0.8278070053257137
  0.5788626342944760  0.4205298524365206  0.6398664094465693
  0.1082542420959735  0.8922262525171769  0.3805601414517762
  0.2262869755706088  0.7773649288979710  0.0764563915309287
  0.7752976378526250  0.8928396554785334  0.8264149364501640
  0.8924736805175485  0.7766411811358168  0.6318859062460633
  0.4436522665454810  0.8927434217653989  0.3223745334351042
  0.5571112438807023  0.7820785634587920  0.0722685950265023
  0.1084301330175702  0.8917705814888777  0.8799526621029989
  0.2267491404213144  0.7771114210479284  0.5762877745761696
  0.7763713408091870  0.8930458954273548  0.3235763605031727
  0.8919704254325725  0.7752256765585024  0.1293421124738470
  0.4445114034145615  0.8885643829460919  0.8262816298605049
  0.5665676738458877  0.8045779320523159  0.5692532985571236
 
             NaN             NaN             NaN
             NaN             NaN             NaN
             NaN             NaN             NaN
             NaN             NaN             NaN
             NaN             NaN             NaN
             NaN             NaN             NaN
             NaN             NaN             NaN
             NaN             NaN             NaN
             NaN             NaN             NaN
             NaN             NaN             NaN
             NaN             NaN             NaN
             NaN             NaN             NaN
             NaN             NaN             NaN
             NaN             NaN             NaN
             NaN             NaN             NaN
             NaN             NaN             NaN
             NaN             NaN             NaN
             NaN             NaN             NaN
             NaN             NaN             NaN
             NaN             NaN             NaN
             NaN             NaN             NaN
             NaN             NaN             NaN
             NaN             NaN             NaN
             NaN             NaN             NaN
             NaN             NaN             NaN
             NaN             NaN             NaN
             NaN             NaN             NaN
             NaN             NaN             NaN
             NaN             NaN             NaN
             NaN             NaN             NaN
             NaN             NaN             NaN
             NaN             NaN             NaN
             NaN             NaN             NaN
             NaN             NaN             NaN
             NaN             NaN             NaN
             NaN             NaN             NaN
             NaN             NaN             NaN
             NaN             NaN             NaN
             NaN             NaN             NaN
             NaN             NaN             NaN
             NaN             NaN             NaN
             NaN             NaN             NaN
             NaN             NaN             NaN
             NaN             NaN             NaN
             NaN             NaN             NaN
             NaN             NaN             NaN
             NaN             NaN             NaN
             NaN             NaN             NaN
             NaN             NaN             NaN
             NaN             NaN             NaN
             NaN             NaN             NaN
             NaN             NaN             NaN
             NaN             NaN             NaN
             NaN             NaN             NaN
             NaN             NaN             NaN
             NaN             NaN             NaN
             NaN             NaN             NaN
             NaN             NaN             NaN
             NaN             NaN             NaN
             NaN             NaN             NaN
             NaN             NaN             NaN
             NaN             NaN             NaN
             NaN             NaN             NaN
             NaN             NaN             NaN
             NaN             NaN             NaN
             NaN             NaN             NaN
             NaN             NaN             NaN
             NaN             NaN             NaN
             NaN             NaN             NaN
             NaN             NaN             NaN
             NaN             NaN             NaN
             NaN             NaN             NaN
