Al   Hf   N                             
   1.00000000000000     
     9.5308817005977513   -0.0030244206156919    0.0190760852801949
    -4.7762173353759589    8.2543103559623212   -0.0253326850509188
     0.0546652629851192   -0.0147657399230776   10.0399241686991942
   Al   Hf   N 
    34     2    36
Direct
  0.2186102604725519  0.1083420245443421  0.3986513415437187
  0.1104095356034946  0.2215867500584494  0.1442844430783623
  0.8888203401469355  0.1118098263326956  0.8965381267144963
  0.7778389663448593  0.2225831459462242  0.6456055521189796
  0.5541477564721120  0.1057939744815428  0.3973124777170725
  0.4408597657886659  0.2162627558157411  0.1450927109224622
  0.2203515877123223  0.1092061643938180  0.8982379496648107
  0.1052972245459642  0.2180628688027966  0.6469048235040091
  0.8891670933518228  0.1119606363385444  0.3955370889657814
  0.7775644752283384  0.2224161839167778  0.1470189648728422
  0.5569554004608719  0.1089412556471956  0.8984593956259772
  0.4400578584529526  0.2059354537523959  0.6501460942661126
  0.2085403074212522  0.4401806290465444  0.3907592366134764
  0.1099919469789654  0.5562413897048444  0.1452693225970236
  0.8912735455978549  0.4430079573381391  0.8980703827192187
  0.7945698171648274  0.5609777892516732  0.6475221316685520
  0.4397427712507422  0.5607181898880995  0.1439834309753323
  0.2230982471250229  0.4436320481404294  0.8962701988848494
  0.1068777962758105  0.5559784871892290  0.6485986271213449
  0.8946986033194477  0.4460633253520783  0.3968650319844400
  0.7827802647298157  0.5588564948756698  0.1424822217945874
  0.5599165291406791  0.4409098532006652  0.8437247157832957
  0.2219081245838126  0.7782510243592995  0.3943647509431045
  0.1105798588850746  0.8896069024960909  0.1486797871663725
  0.8912220082279347  0.7804554151514154  0.8977457894082050
  0.7827860475885799  0.8961684495162814  0.6468531921805933
  0.5606854592046986  0.7928208437437121  0.3906791723750800
  0.4437989720858297  0.8901202293993862  0.1453097501138387
  0.2222948614868443  0.7777688303697943  0.8976708387057926
  0.1120587995182731  0.8891595212107930  0.6483802572419961
  0.8924647105781318  0.7826600358332030  0.3981070643039857
  0.7788598717173159  0.8904576825850867  0.1442535477326956
  0.5567193150978866  0.7775663393342640  0.8961614868196790
  0.4443980964031908  0.8938191901299248  0.6484739449592070
  0.5532916318066299  0.4471080150495794  0.3803479094351090
  0.4451713594893647  0.5560576398159185  0.6129420171216822
  0.1096022632751144  0.2199321875150346  0.3349372511395359
  0.2199359983175526  0.1097429670691525  0.0875597239562111
  0.7781416667834051  0.2219307739115166  0.8371676340999130
  0.8892699364210230  0.1120258896142161  0.5869174124798491
  0.4305031164365474  0.1936665240103395  0.3355834862263194
  0.5571533184230191  0.1111818654079357  0.0874618467230732
  0.1113825900437035  0.2214976981767975  0.8380287853195298
  0.2207053843941580  0.1100610461417446  0.5909189380690520
  0.7775877174787809  0.2226905008877367  0.3391969699444601
  0.8886073119294622  0.1120673656832025  0.0870733345824561
  0.4405312902328760  0.2122522087932168  0.8427158306710254
  0.5562462452372046  0.1090335853287812  0.5879597341084803
  0.1092911994279433  0.5570214494566130  0.3346493202589187
  0.2194836656394727  0.4436169940781625  0.0862971006271707
  0.7880449611480884  0.5599649088907910  0.8435285462069331
  0.8917841131910436  0.4440338612915014  0.5877795616180492
  0.4251401866878979  0.5763638841319434  0.3358504793740948
  0.5534616648370303  0.4456620813168755  0.1307841771944709
  0.1131550683476377  0.5558051850903354  0.8390853290165339
  0.1916589046250294  0.4307838393944792  0.5812325442068058
  0.8066311816758329  0.5702091568559240  0.3362047134895434
  0.8888900204907344  0.4426533322668860  0.0873072436269808
  0.4458196538927481  0.5549495326888447  0.8400138902578931
  0.5741177855178918  0.4262446744504231  0.6270980888561652
  0.1110145085129375  0.8900712481929105  0.3396633654238670
  0.2214923609397417  0.7784712276597929  0.0884687841080449
  0.7790134839459597  0.8895847023479817  0.8378794719631628
  0.8912283165311976  0.7813013503378627  0.5906597390553898
  0.4433106518117853  0.8915067872754889  0.3347439090525555
  0.5567541411370485  0.7809920040333793  0.0862174261136133
  0.1122655733490987  0.8884894065773139  0.8387527422421570
  0.2227227641956944  0.7775806339264690  0.5882283154491788
  0.7810368786981385  0.8918830571542031  0.3348155524476866
  0.8904308236507674  0.7807792766934725  0.0873313978886898
  0.4443957184175957  0.8873707457842883  0.8390288872548624
  0.5700561286330981  0.8095794940178109  0.5811193905751182
 
             NaN             NaN             NaN
             NaN             NaN             NaN
             NaN             NaN             NaN
             NaN             NaN             NaN
             NaN             NaN             NaN
             NaN             NaN             NaN
             NaN             NaN             NaN
             NaN             NaN             NaN
             NaN             NaN             NaN
             NaN             NaN             NaN
             NaN             NaN             NaN
             NaN             NaN             NaN
             NaN             NaN             NaN
             NaN             NaN             NaN
             NaN             NaN             NaN
             NaN             NaN             NaN
             NaN             NaN             NaN
             NaN             NaN             NaN
             NaN             NaN             NaN
             NaN             NaN             NaN
             NaN             NaN             NaN
             NaN             NaN             NaN
             NaN             NaN             NaN
             NaN             NaN             NaN
             NaN             NaN             NaN
             NaN             NaN             NaN
             NaN             NaN             NaN
             NaN             NaN             NaN
             NaN             NaN             NaN
             NaN             NaN             NaN
             NaN             NaN             NaN
             NaN             NaN             NaN
             NaN             NaN             NaN
             NaN             NaN             NaN
             NaN             NaN             NaN
             NaN             NaN             NaN
             NaN             NaN             NaN
             NaN             NaN             NaN
             NaN             NaN             NaN
             NaN             NaN             NaN
             NaN             NaN             NaN
             NaN             NaN             NaN
             NaN             NaN             NaN
             NaN             NaN             NaN
             NaN             NaN             NaN
             NaN             NaN             NaN
             NaN             NaN             NaN
             NaN             NaN             NaN
             NaN             NaN             NaN
             NaN             NaN             NaN
             NaN             NaN             NaN
             NaN             NaN             NaN
             NaN             NaN             NaN
             NaN             NaN             NaN
             NaN             NaN             NaN
             NaN             NaN             NaN
             NaN             NaN             NaN
             NaN             NaN             NaN
             NaN             NaN             NaN
             NaN             NaN             NaN
             NaN             NaN             NaN
             NaN             NaN             NaN
             NaN             NaN             NaN
             NaN             NaN             NaN
             NaN             NaN             NaN
             NaN             NaN             NaN
             NaN             NaN             NaN
             NaN             NaN             NaN
             NaN             NaN             NaN
             NaN             NaN             NaN
             NaN             NaN             NaN
             NaN             NaN             NaN
