Al   Hf   N                             
   1.00000000000000     
     9.5665215312191130   -0.0113620215147494    0.0257425414251815
    -4.8160747235878185    8.2437719954272026   -0.0247560262821690
     0.0787422831284263   -0.0462754377950188   10.1740319499852614
   Al   Hf   N 
    34     2    36
Direct
  0.2223276330811800  0.1043288160583985  0.3229569993531421
  0.1140174865781999  0.2253997650146694  0.1307974902521723
  0.8832313475367808  0.1074550230421813  0.8234311967251254
  0.7777005379006853  0.2217055521892119  0.5735990869267461
  0.5569129280644574  0.1090107960567531  0.3196220991684294
  0.4457002578882850  0.2245973381710044  0.0740711966868948
  0.2247370483639756  0.1077628078006139  0.8267844273177182
  0.1088285636171947  0.2210685824737737  0.6334631200903849
  0.8846725259043059  0.1105330786807139  0.3196567083591598
  0.7774054020826087  0.2224369551541102  0.0705285817807683
  0.5562030515236508  0.1090730720213673  0.8230392657316155
  0.4432841108295363  0.2110648256254288  0.5775911234327411
  0.2114894978491655  0.4399414112188390  0.3857892914211907
  0.1067918476338118  0.5592815736746362  0.0709431159636274
  0.8918604314530866  0.4440505253086168  0.8235252045654348
  0.7907451144856679  0.5588599051438152  0.5778369571841382
  0.4378609071263371  0.5644778156304932  0.1362831708485620
  0.2249861117264616  0.4403902388909646  0.8902658627845466
  0.1017030038016927  0.5604620572546898  0.5697731056465546
  0.8928083594711270  0.4445139675447561  0.3201716069732704
  0.7766237655840984  0.5563693918648438  0.0747432456394517
  0.5647791952531531  0.4369968562675516  0.8297357772027637
  0.2220817731005758  0.7781502762633324  0.3202551505000988
  0.1118720903306877  0.8882832612443911  0.0708744994105220
  0.8915100586947955  0.7785638504247588  0.8242251891551515
  0.7880187312860158  0.8944771223579631  0.5691175385709213
  0.5566431901650213  0.7879798307622622  0.3844170208267373
  0.4408572688350451  0.8938834391313082  0.0718687652124202
  0.2223296882716814  0.7769672710647045  0.8210894894812231
  0.1111461050192104  0.8896829670247008  0.5718304409774136
  0.8967049458477734  0.7821535105605050  0.3219641157524285
  0.7847204581172859  0.8917921555815688  0.0724456368169188
  0.5543662038399283  0.7727972286047053  0.8887732564834829
  0.4389226242779046  0.8990228596574784  0.5706148424929884
  0.5501681343604757  0.4520487421610272  0.3563373491875786
  0.4500904344634999  0.5522856712714930  0.6137857806106538
  0.1131025658700033  0.2241823494758363  0.3319576495861813
  0.2257981992877172  0.1072191086694402  0.1305769329165628
  0.7774645326507006  0.2216789606813241  0.8819516682451832
  0.8828508444219906  0.1082769895155282  0.6316892999814189
  0.4355632707314177  0.1978160560372278  0.3890912921097164
  0.5568759363795963  0.1142976947893668  0.1312684098648567
  0.1116359988885569  0.2223315318213735  0.8400484728865135
  0.2245053841532695  0.1073688454881861  0.6346794101659268
  0.7778444085563561  0.2225921948022953  0.3822445492854629
  0.8833242862640975  0.1104116317606694  0.1288135748810755
  0.4447649879893247  0.2186107760196121  0.8860639455349520
  0.5572999119295007  0.1100752951520366  0.6356579717023771
  0.1058580804283287  0.5610663680112682  0.3794280294968751
  0.2217447528217835  0.4431759168038918  0.0790430477752377
  0.7831237559164576  0.5572299029538648  0.8859569619158764
  0.8911965338443387  0.4431058404165793  0.6357144935745549
  0.4207920026112980  0.5797756167550927  0.3210079021367651
  0.5543649419116289  0.4469821784675686  0.1314354727745953
  0.1108504362200135  0.5585966424358660  0.8803215223495641
  0.1983876528256558  0.4331189744671675  0.5769512360097647
  0.8046078903042733  0.5672774152826596  0.3888824774361331
  0.8870120480185708  0.4440611296043051  0.1313437196339560
  0.4469687304853110  0.5527568308366292  0.8338754681787771
  0.5791733686293365  0.4230578185620919  0.6416158811038239
  0.1120165816171026  0.8892832739722333  0.3830652783280885
  0.2210214719767067  0.7785825618026212  0.1315098193243766
  0.7849800494819303  0.8903128527469766  0.8811610049552483
  0.8909666598035326  0.7803936851491268  0.6348861033918769
  0.4393683698896920  0.8958731939933292  0.3790320434081932
  0.5550952532122007  0.7793195841003728  0.0814773397909130
  0.1119016301073917  0.8873048744161400  0.8826299227173939
  0.2200590419039753  0.7791581834775280  0.6313980867559131
  0.7874756778745368  0.8933910457053544  0.3769411554172905
  0.8908174012413899  0.7790508444802672  0.1327528799764713
  0.4408670750635171  0.8898931173561125  0.8800455091863598
  0.5631019993281289  0.8017272707030797  0.5806955230283017
 
             NaN             NaN             NaN
             NaN             NaN             NaN
             NaN             NaN             NaN
             NaN             NaN             NaN
             NaN             NaN             NaN
             NaN             NaN             NaN
             NaN             NaN             NaN
             NaN             NaN             NaN
             NaN             NaN             NaN
             NaN             NaN             NaN
             NaN             NaN             NaN
             NaN             NaN             NaN
             NaN             NaN             NaN
             NaN             NaN             NaN
             NaN             NaN             NaN
             NaN             NaN             NaN
             NaN             NaN             NaN
             NaN             NaN             NaN
             NaN             NaN             NaN
             NaN             NaN             NaN
             NaN             NaN             NaN
             NaN             NaN             NaN
             NaN             NaN             NaN
             NaN             NaN             NaN
             NaN             NaN             NaN
             NaN             NaN             NaN
             NaN             NaN             NaN
             NaN             NaN             NaN
             NaN             NaN             NaN
             NaN             NaN             NaN
             NaN             NaN             NaN
             NaN             NaN             NaN
             NaN             NaN             NaN
             NaN             NaN             NaN
             NaN             NaN             NaN
             NaN             NaN             NaN
             NaN             NaN             NaN
             NaN             NaN             NaN
             NaN             NaN             NaN
             NaN             NaN             NaN
             NaN             NaN             NaN
             NaN             NaN             NaN
             NaN             NaN             NaN
             NaN             NaN             NaN
             NaN             NaN             NaN
             NaN             NaN             NaN
             NaN             NaN             NaN
             NaN             NaN             NaN
             NaN             NaN             NaN
             NaN             NaN             NaN
             NaN             NaN             NaN
             NaN             NaN             NaN
             NaN             NaN             NaN
             NaN             NaN             NaN
             NaN             NaN             NaN
             NaN             NaN             NaN
             NaN             NaN             NaN
             NaN             NaN             NaN
             NaN             NaN             NaN
             NaN             NaN             NaN
             NaN             NaN             NaN
             NaN             NaN             NaN
             NaN             NaN             NaN
             NaN             NaN             NaN
             NaN             NaN             NaN
             NaN             NaN             NaN
             NaN             NaN             NaN
             NaN             NaN             NaN
             NaN             NaN             NaN
             NaN             NaN             NaN
             NaN             NaN             NaN
             NaN             NaN             NaN
