Al   Hf   N                             
   1.00000000000000     
     9.5636130108977202    0.0014934906149302    0.0122589991006791
    -4.8187112463456847    8.2437814322478467   -0.0273772842938674
     0.0894905417770516   -0.0391288154575460   10.2018464945179002
   Al   Hf   N 
    34     2    36
Direct
  0.2141893599585157  0.1090975896663527  0.3889723296078207
  0.1089303366666067  0.2227275704247698  0.1348217840851679
  0.8885232634862470  0.1118526754257305  0.8873160132185918
  0.7787931582392196  0.2229950597612864  0.6380988846654015
  0.5618981054506452  0.1020879621288477  0.3879702098581683
  0.4466500203073521  0.2286340295916928  0.0691554273423893
  0.2173704311418240  0.1118349109482588  0.8826150481070409
  0.1038042436841352  0.2197356538060213  0.6371231115362503
  0.8893741868820969  0.1101729597636514  0.3863877739684785
  0.7780654351651883  0.2235309242723855  0.1375145660695702
  0.5600583965106736  0.1070777062543073  0.8865708594428431
  0.4460519031401654  0.2146204118219447  0.5746464145296034
  0.2097734178635577  0.4421562328487253  0.3808468988256790
  0.1083566035415685  0.5558357751237681  0.1353535644846304
  0.8935270897606042  0.4418111577531822  0.8877134718680747
  0.7880678935291797  0.5603291673685660  0.5706675355626082
  0.4353337041164079  0.5639674988325873  0.1288081672072665
  0.2238174419770026  0.4444674741985027  0.8841361998063315
  0.1072050977689484  0.5550215484164209  0.6384527034401067
  0.8983605545312412  0.4406016873344505  0.3881357591598402
  0.7744562869858879  0.5592611919106008  0.0679160612862286
  0.5638124182688266  0.4376605681085881  0.8228909423109704
  0.2237295017064378  0.7780864383218653  0.3841415781976491
  0.1122380489007967  0.8900317239246219  0.1000681212794887
  0.8888911290343493  0.7748732992818494  0.8205549007054681
  0.7775511154016280  0.8968633675616543  0.6356871434712851
  0.5580873565540413  0.7899635663358180  0.3809567603639554
  0.4444772742457010  0.8919706808565273  0.1359070530727520
  0.2244440100222806  0.7764692771641364  0.8853377512737022
  0.1121383355279034  0.8879319925846257  0.6100597119095168
  0.8960461688134947  0.7798892745400928  0.3169555696007584
  0.7744868456128214  0.8934757426809247  0.1330991375337542
  0.5560592468968673  0.7762970061318604  0.8843642149774114
  0.4446854832466252  0.8920554517249493  0.6392803772140923
  0.5508015206471266  0.4497436195377859  0.3441733361528821
  0.4502539866463176  0.5483068375736655  0.6026451157426849
  0.1096640172708226  0.2211982046425152  0.3233931875910874
  0.2170086584958889  0.1139081580520110  0.0768726149545354
  0.7797316997854872  0.2225623943255422  0.8266804260085691
  0.8889027919335601  0.1112055752711230  0.5750418091929019
  0.4391283056666968  0.2011180030539932  0.3789222383504460
  0.5595796480227604  0.1107430762295050  0.0780646217214776
  0.1092949058352391  0.2228440639338729  0.8253944780524068
  0.2164321518910059  0.1121735816708368  0.5842442770720703
  0.7806536077821845  0.2215817885526385  0.3267578570062130
  0.8886249403648183  0.1127847033527373  0.0754600659149401
  0.4466949166051919  0.2226860236533984  0.8770983282874519
  0.5616577550420188  0.1048468914571873  0.5792565684640030
  0.1088790614301906  0.5571038642919113  0.3222755917607798
  0.2172181488902399  0.4433640584275440  0.0724423430854046
  0.7793838448897816  0.5594788756193918  0.8806698941653400
  0.8945095639106055  0.4397601575193472  0.5781364480653239
  0.4211315117343897  0.5782889095381472  0.3164207003096999
  0.5535029808606718  0.4482262429705273  0.1247234451532468
  0.1128331563214530  0.5553841646483257  0.8264823590190851
  0.1958972858438916  0.4333812885844421  0.5691934187461946
  0.8017846496378729  0.5684873288084020  0.3810758533403637
  0.8894305343195585  0.4418139702035209  0.0779587031999351
  0.4459280139566297  0.5539084573821202  0.8272932784795169
  0.5811087731995983  0.4220743551017704  0.6389932590891537
  0.1140173555669488  0.8906222796733781  0.3504802604322891
  0.2246455347410479  0.7765290953866387  0.0754518765781688
  0.7751893378065460  0.8932583153325085  0.8269010166497238
  0.8872082296977822  0.7746945821587548  0.6297722812882723
  0.4439433079126988  0.8911932494630981  0.3226103998791763
  0.5559998297919416  0.7820695084246294  0.0720592016954689
  0.1131022336623541  0.8882674332021744  0.8485755437578035
  0.2250339924386567  0.7756129414243355  0.5770925295950662
  0.7760858134202958  0.8928684506271071  0.3232054358073592
  0.8880793356119298  0.7758186128911730  0.1247492720645700
  0.4449113750139460  0.8868884733559899  0.8268121097087744
  0.5652551598945756  0.8025436893282926  0.5690937105097137
 
             NaN             NaN             NaN
             NaN             NaN             NaN
             NaN             NaN             NaN
             NaN             NaN             NaN
             NaN             NaN             NaN
             NaN             NaN             NaN
             NaN             NaN             NaN
             NaN             NaN             NaN
             NaN             NaN             NaN
             NaN             NaN             NaN
             NaN             NaN             NaN
             NaN             NaN             NaN
             NaN             NaN             NaN
             NaN             NaN             NaN
             NaN             NaN             NaN
             NaN             NaN             NaN
             NaN             NaN             NaN
             NaN             NaN             NaN
             NaN             NaN             NaN
             NaN             NaN             NaN
             NaN             NaN             NaN
             NaN             NaN             NaN
             NaN             NaN             NaN
             NaN             NaN             NaN
             NaN             NaN             NaN
             NaN             NaN             NaN
             NaN             NaN             NaN
             NaN             NaN             NaN
             NaN             NaN             NaN
             NaN             NaN             NaN
             NaN             NaN             NaN
             NaN             NaN             NaN
             NaN             NaN             NaN
             NaN             NaN             NaN
             NaN             NaN             NaN
             NaN             NaN             NaN
             NaN             NaN             NaN
             NaN             NaN             NaN
             NaN             NaN             NaN
             NaN             NaN             NaN
             NaN             NaN             NaN
             NaN             NaN             NaN
             NaN             NaN             NaN
             NaN             NaN             NaN
             NaN             NaN             NaN
             NaN             NaN             NaN
             NaN             NaN             NaN
             NaN             NaN             NaN
             NaN             NaN             NaN
             NaN             NaN             NaN
             NaN             NaN             NaN
             NaN             NaN             NaN
             NaN             NaN             NaN
             NaN             NaN             NaN
             NaN             NaN             NaN
             NaN             NaN             NaN
             NaN             NaN             NaN
             NaN             NaN             NaN
             NaN             NaN             NaN
             NaN             NaN             NaN
             NaN             NaN             NaN
             NaN             NaN             NaN
             NaN             NaN             NaN
             NaN             NaN             NaN
             NaN             NaN             NaN
             NaN             NaN             NaN
             NaN             NaN             NaN
             NaN             NaN             NaN
             NaN             NaN             NaN
             NaN             NaN             NaN
             NaN             NaN             NaN
             NaN             NaN             NaN
