Al   Hf   N                             
   1.00000000000000     
     9.5626312479161530   -0.0101219984861041    0.0250067015619747
    -4.8073656008972758    8.2487455519078203   -0.0238104246495410
     0.0713021627327725   -0.0566367912017113   10.2002929525833039
   Al   Hf   N 
    34     2    36
Direct
  0.2223351813166864  0.1038385483017102  0.3228078151317933
  0.1154415971151391  0.2273779194393235  0.1355838663076592
  0.8829536449391368  0.1095985807653527  0.8268365816196915
  0.7775569582142270  0.2225016390159953  0.5728975517032782
  0.5562925227491921  0.1084734102688059  0.3192490600104652
  0.4455710677453833  0.2245099721068619  0.0738092556064595
  0.2257610404448640  0.1075085993511121  0.8262295475027132
  0.1096906556787860  0.2232461329280249  0.6411147999842166
  0.8838273470970960  0.1119098879461818  0.3193626140902812
  0.7772913068871947  0.2233779712716838  0.0699413050877163
  0.5560208874471949  0.1089814555270215  0.8225747343665119
  0.4430426110802130  0.2108613109748151  0.5770476798245164
  0.2110748905677155  0.4392305386269383  0.3863126852872672
  0.1069073011430936  0.5589974211095476  0.0701232390586550
  0.8920344154035436  0.4447126715441562  0.8228129948182733
  0.7904703561145906  0.5580623590170665  0.5772535444875927
  0.4367074039811818  0.5633613299812075  0.1364194789923603
  0.2262596127922514  0.4414210543865040  0.8897748679506131
  0.1018548864153254  0.5600745717531289  0.5693404885166371
  0.8929496765725404  0.4448197232245724  0.3196789806453894
  0.7767535434885634  0.5553951097364151  0.0738168442531284
  0.5646410613485059  0.4373023881487400  0.8291190885827784
  0.2222659834547559  0.7776013414613496  0.3198539563635606
  0.1128640228766675  0.8885198141386312  0.0703522701626200
  0.8921275621733316  0.7779564815533517  0.8264546896580103
  0.7845261545800531  0.8932139230460281  0.5941686075037217
  0.5582864039231477  0.7884763322128814  0.3837859497066549
  0.4407103527361393  0.8938910817381427  0.0709167904022943
  0.2233467844801893  0.7770628720854011  0.8205009435488387
  0.1118644409415529  0.8901233347763116  0.5712823723657983
  0.8964907513240772  0.7807987357720924  0.3218265642623129
  0.7806780730945797  0.8892997132065604  0.0951348930100667
  0.5571266487717119  0.7735454399309789  0.8898624327455550
  0.4390568018458165  0.8991384861422625  0.5693966236901439
  0.5501110294613100  0.4522935658579724  0.3554732850332761
  0.4494390957306596  0.5511402312825301  0.6125208382590548
  0.1132867898218478  0.2253410787468080  0.3283749928308713
  0.2260926958071747  0.1071429215557766  0.1306953696177389
  0.7768471853685092  0.2234568163263902  0.8822088306354749
  0.8837369489242611  0.1118477500607210  0.6324608085050935
  0.4355002711216158  0.1980465406578597  0.3889264288340043
  0.5569246354743921  0.1139648101075122  0.1311942397053379
  0.1134317706949852  0.2251388667207901  0.8345543520773691
  0.2247622976245131  0.1072262156204984  0.6347597785564358
  0.7772768396206448  0.2233657018848700  0.3821601152068742
  0.8853335951748622  0.1140653137999024  0.1264608230683321
  0.4450173224896987  0.2190823558129237  0.8860989564094910
  0.5573227466536458  0.1097253963895716  0.6353622692362405
  0.1056803041604208  0.5608748849457259  0.3795411741543622
  0.2219355064052353  0.4423010688280087  0.0773161975815776
  0.7827937401446718  0.5566154531992009  0.8858475541143068
  0.8915609159810270  0.4433259217681938  0.6355053668047007
  0.4195621244792851  0.5793060451311907  0.3207741318818569
  0.5546218958439191  0.4470334033889640  0.1312079520744906
  0.1110184254513569  0.5588929281742431  0.8799672076292817
  0.1978591458789372  0.4316095001611807  0.5758972033263697
  0.8042388277933357  0.5666440319697332  0.3890922883631974
  0.8875197914650971  0.4441577461972741  0.1313001687481090
  0.4472031174569890  0.5534891130201313  0.8324762602224546
  0.5790713899836086  0.4226879220951621  0.6415404825844285
  0.1117109536309847  0.8891548605178333  0.3830797460912116
  0.2216595392896713  0.7780902806021079  0.1313496760154821
  0.7825181827051358  0.8894845452337465  0.8699111180960758
  0.8927276622874424  0.7787098371769734  0.6357817005288184
  0.4391219883285182  0.8956083320705494  0.3790765513444737
  0.5543061520565555  0.7778615520564029  0.0806779102961374
  0.1130555334055854  0.8878487008682171  0.8827039620917109
  0.2208448768848329  0.7788293181933179  0.6310700743106165
  0.7814413957073404  0.8901365631454085  0.3555950006478257
  0.8930915163915910  0.7764945887568538  0.1317440229340051
  0.4415710234881662  0.8900252379768351  0.8800903103071511
  0.5638445993281659  0.8012802283178734  0.5779646317559263
 
             NaN             NaN             NaN
             NaN             NaN             NaN
             NaN             NaN             NaN
             NaN             NaN             NaN
             NaN             NaN             NaN
             NaN             NaN             NaN
             NaN             NaN             NaN
             NaN             NaN             NaN
             NaN             NaN             NaN
             NaN             NaN             NaN
             NaN             NaN             NaN
             NaN             NaN             NaN
             NaN             NaN             NaN
             NaN             NaN             NaN
             NaN             NaN             NaN
             NaN             NaN             NaN
             NaN             NaN             NaN
             NaN             NaN             NaN
             NaN             NaN             NaN
             NaN             NaN             NaN
             NaN             NaN             NaN
             NaN             NaN             NaN
             NaN             NaN             NaN
             NaN             NaN             NaN
             NaN             NaN             NaN
             NaN             NaN             NaN
             NaN             NaN             NaN
             NaN             NaN             NaN
             NaN             NaN             NaN
             NaN             NaN             NaN
             NaN             NaN             NaN
             NaN             NaN             NaN
             NaN             NaN             NaN
             NaN             NaN             NaN
             NaN             NaN             NaN
             NaN             NaN             NaN
             NaN             NaN             NaN
             NaN             NaN             NaN
             NaN             NaN             NaN
             NaN             NaN             NaN
             NaN             NaN             NaN
             NaN             NaN             NaN
             NaN             NaN             NaN
             NaN             NaN             NaN
             NaN             NaN             NaN
             NaN             NaN             NaN
             NaN             NaN             NaN
             NaN             NaN             NaN
             NaN             NaN             NaN
             NaN             NaN             NaN
             NaN             NaN             NaN
             NaN             NaN             NaN
             NaN             NaN             NaN
             NaN             NaN             NaN
             NaN             NaN             NaN
             NaN             NaN             NaN
             NaN             NaN             NaN
             NaN             NaN             NaN
             NaN             NaN             NaN
             NaN             NaN             NaN
             NaN             NaN             NaN
             NaN             NaN             NaN
             NaN             NaN             NaN
             NaN             NaN             NaN
             NaN             NaN             NaN
             NaN             NaN             NaN
             NaN             NaN             NaN
             NaN             NaN             NaN
             NaN             NaN             NaN
             NaN             NaN             NaN
             NaN             NaN             NaN
             NaN             NaN             NaN
