Al   Hf   N                             
   1.00000000000000     
     9.5076585660628012   -0.0109809967744074    0.0252522850339752
    -4.7537906867800546    8.2343414389427476   -0.0251819669080498
     0.0308832475947352   -0.0167659197189599   10.0728414557049195
   Al   Hf   N 
    34     2    36
Direct
  0.2183594599993270  0.1058428334871166  0.3150223900412783
  0.1093725940563886  0.2204686261983468  0.0638189287569375
  0.8897110185591188  0.1110243401509265  0.8120652867718476
  0.7783197550635848  0.2223776479147048  0.5660503336658493
  0.5567847159700960  0.1072425033094575  0.3133037436435728
  0.4427530427718480  0.2204395550271983  0.0643426351253140
  0.2212907875089414  0.1099555037254660  0.8161398236492730
  0.1096802541893283  0.2195162947773781  0.5624065597462717
  0.8889056059549105  0.1117651675573157  0.3134454842352383
  0.7781071163045326  0.2226060399446510  0.0632574365824325
  0.5560628754483545  0.1108986054656427  0.8146213449544533
  0.4415960044664899  0.2139724911026164  0.5696578957652179
  0.2114124132854300  0.4447549651700982  0.3064324055172989
  0.1093721784293606  0.5575079943537347  0.0630513131937249
  0.8898255831252584  0.4446653226949380  0.8146257019415373
  0.7866720582935756  0.5590526225339403  0.5696498555223286
  0.4423894670420125  0.5583041926507448  0.0611888922996329
  0.2145263001177895  0.4406311268643393  0.8186112336671698
  0.1066162907572519  0.5539822042520726  0.5636420045996928
  0.8934184388493236  0.4438892960002363  0.3133067238887435
  0.7802305861782344  0.5579287048250166  0.0643403112706906
  0.5608367695928820  0.4398533183250350  0.8238448853174276
  0.2228331350004780  0.7778248884374079  0.3158618837474947
  0.1116952428890698  0.8889714974899690  0.0649085922803465
  0.8907259088761776  0.7794035429801625  0.8161284917619085
  0.7811700830931585  0.8910294307892315  0.5624017784444391
  0.5559073596388870  0.7892519780457050  0.3064173279555504
  0.4431929980260279  0.8913312830549316  0.0630425978235039
  0.2225153399670248  0.7782009975857136  0.8137986784404632
  0.1119703874270996  0.8886704517998183  0.5655823360469512
  0.8947753787191459  0.7822799479453622  0.3150174670626171
  0.7802211663953358  0.8913303971903801  0.0638024035170019
  0.5600824121955910  0.7861959816543873  0.8185915832160973
  0.4466997134580808  0.8940741954681144  0.5636303196928978
  0.5521935900452775  0.4484118242467687  0.3345800975620890
  0.4484620597572260  0.5522277958725965  0.5725680817058745
  0.1113963188218818  0.2231093961611066  0.3699379722230205
  0.2214281354868106  0.1111120211741721  0.1242368006827235
  0.7785277387679770  0.2222034952518541  0.8726065081351493
  0.8899059449109359  0.1107844805721427  0.6211162712381508
  0.4339572888550265  0.1961396387327028  0.3787135294835622
  0.5564542489117557  0.1128193007711289  0.1229093192716704
  0.1096543551386304  0.2196536509212734  0.8744915459488354
  0.2199566701852476  0.1091149842830319  0.6260287949535410
  0.7780222297398325  0.2226521230482916  0.3733010565354959
  0.8883921836442141  0.1122898647721016  0.1231394625934854
  0.4422121231981038  0.2177722699200828  0.8759985370031842
  0.5566494203772834  0.1098523187395131  0.6253946135024862
  0.1086575837808894  0.5556836577626711  0.3729746591389898
  0.2179483822458153  0.4436182669235080  0.1156928397646553
  0.7829176186381162  0.5584858117031146  0.8759942367826312
  0.8908227263854585  0.4440345781101485  0.6253983249449178
  0.4233998000597552  0.5772677212540458  0.3546265851905517
  0.5538555344015066  0.4467980941428209  0.1126198935743830
  0.1105948653491922  0.5578088791413620  0.8741824304479593
  0.1981410225524840  0.4322411853328845  0.6301539179743187
  0.8044685689365565  0.5666748462747080  0.3787031821954372
  0.8878650746472729  0.4442410311298914  0.1229120726521984
  0.4445582261414600  0.5561656941363182  0.8626300744178153
  0.5736274255566514  0.4270093683759839  0.6378518706798033
  0.1115766453511569  0.8890403355546539  0.3748281241914029
  0.2221243974579750  0.7785584855234404  0.1244203393423504
  0.7810597497324849  0.8910736607687539  0.8744749889733683
  0.8915052316785008  0.7806815533805960  0.6260158791673263
  0.4449767213480627  0.8920001387138115  0.3729643388795409
  0.5570592162092964  0.7827321345720932  0.1156800237933666
  0.1119170465533088  0.8887635582843387  0.8745259963250902
  0.2233471442531751  0.7773244893363511  0.6221244502202268
  0.7775452285696787  0.8892763670578958  0.3699356851268547
  0.8895349054422681  0.7792359669205808  0.1242308113378101
  0.4429102568679824  0.8901298187251427  0.8741747274864693
  0.5684266429690865  0.8025356010163165  0.6301346164770578
 
             NaN             NaN             NaN
             NaN             NaN             NaN
             NaN             NaN             NaN
             NaN             NaN             NaN
             NaN             NaN             NaN
             NaN             NaN             NaN
             NaN             NaN             NaN
             NaN             NaN             NaN
             NaN             NaN             NaN
             NaN             NaN             NaN
             NaN             NaN             NaN
             NaN             NaN             NaN
             NaN             NaN             NaN
             NaN             NaN             NaN
             NaN             NaN             NaN
             NaN             NaN             NaN
             NaN             NaN             NaN
             NaN             NaN             NaN
             NaN             NaN             NaN
             NaN             NaN             NaN
             NaN             NaN             NaN
             NaN             NaN             NaN
             NaN             NaN             NaN
             NaN             NaN             NaN
             NaN             NaN             NaN
             NaN             NaN             NaN
             NaN             NaN             NaN
             NaN             NaN             NaN
             NaN             NaN             NaN
             NaN             NaN             NaN
             NaN             NaN             NaN
             NaN             NaN             NaN
             NaN             NaN             NaN
             NaN             NaN             NaN
             NaN             NaN             NaN
             NaN             NaN             NaN
             NaN             NaN             NaN
             NaN             NaN             NaN
             NaN             NaN             NaN
             NaN             NaN             NaN
             NaN             NaN             NaN
             NaN             NaN             NaN
             NaN             NaN             NaN
             NaN             NaN             NaN
             NaN             NaN             NaN
             NaN             NaN             NaN
             NaN             NaN             NaN
             NaN             NaN             NaN
             NaN             NaN             NaN
             NaN             NaN             NaN
             NaN             NaN             NaN
             NaN             NaN             NaN
             NaN             NaN             NaN
             NaN             NaN             NaN
             NaN             NaN             NaN
             NaN             NaN             NaN
             NaN             NaN             NaN
             NaN             NaN             NaN
             NaN             NaN             NaN
             NaN             NaN             NaN
             NaN             NaN             NaN
             NaN             NaN             NaN
             NaN             NaN             NaN
             NaN             NaN             NaN
             NaN             NaN             NaN
             NaN             NaN             NaN
             NaN             NaN             NaN
             NaN             NaN             NaN
             NaN             NaN             NaN
             NaN             NaN             NaN
             NaN             NaN             NaN
             NaN             NaN             NaN
