Al   Hf   N                             
   1.00000000000000     
     9.5253701335425447   -0.0102063411494763    0.0170464006935577
    -4.7524757981594234    8.2551053045781853   -0.0168981757198698
     0.0888740202195535   -0.0516425720499693   10.2931143032140362
   Al   Hf   N 
    34     2    36
Direct
  0.2212140785607538  0.1042061836945998  0.3195726739587478
  0.1090130080392855  0.2254092857151412  0.1372983061535290
  0.8914786176243932  0.1095351895682562  0.8884681756903237
  0.7789838377683905  0.2220306413564023  0.6138747992262370
  0.5582432602379178  0.1123811558339916  0.3147784719735151
  0.4433501409698064  0.2243393864119732  0.0698143665319958
  0.2240550512678111  0.1088802810834889  0.8205398915580925
  0.1052435713396037  0.2227617695804341  0.6378056356049951
  0.8889812759988439  0.1120329397549208  0.3877650293466335
  0.7776088180086218  0.2234057880395911  0.0905970313151869
  0.5547640644785109  0.1124080387020773  0.8267403759833600
  0.4431278217897334  0.2081276962282839  0.5736324606014807
  0.2076568136587893  0.4428355597096978  0.3825534009825443
  0.1170001512649093  0.5611402782461934  0.1339989027336997
  0.8886067319382485  0.4462507209266212  0.8267404583327941
  0.7928859640196588  0.5578860868519542  0.5736324425387747
  0.4386955597575107  0.5623185640307933  0.1329700774793908
  0.2248500126303194  0.4446151799144913  0.8865809989291210
  0.1155162890250221  0.5615783920561341  0.6413477696964557
  0.8886336763786233  0.4427715055819269  0.3147785221986492
  0.7766743177996384  0.5576637147350132  0.0698144064324967
  0.5625857443233087  0.4384282768823108  0.8240249705300776
  0.2252522140122767  0.7757622764975254  0.3862674589064717
  0.1078792495454717  0.8931345982746450  0.0686680427264399
  0.8921334477237501  0.7769587782881784  0.8205398539279054
  0.7782521834176448  0.8957705329685958  0.6378056171576130
  0.5581784216423965  0.7933572580049501  0.3825534591359033
  0.4398740534859676  0.8840139901509194  0.1339989735650634
  0.2255089746820994  0.7755053223334484  0.8900794860014667
  0.1080833894625410  0.8929304831061557  0.5688493342321912
  0.8968080739711636  0.7798002539635535  0.3195726920346630
  0.7756046548006947  0.8920009749219840  0.1372983460026235
  0.5563985834170332  0.7761638047891456  0.8865809754553994
  0.4394357162562585  0.8854975497528119  0.6413479124660283
  0.5512247526486342  0.4497894767931054  0.3522467067984138
  0.4508633273388215  0.5501504429740220  0.6036147605670436
  0.1075353581132540  0.2248331189176482  0.3250254444602760
  0.2254863292638719  0.1089030335944331  0.1308733469406093
  0.7780595545502048  0.2229551869626287  0.8628106572114055
  0.8915314246924748  0.1094825972200350  0.5767243534682713
  0.4334654119788804  0.1948199940813011  0.3878571200372371
  0.5543045701686912  0.1149448317285339  0.1228376533074814
  0.1084912039234827  0.2263628606632225  0.8263893230375498
  0.2249433368879792  0.1083192520570803  0.6327670207890397
  0.7784120266495292  0.2226027606886527  0.3506490982877720
  0.8926663501158495  0.1083475899634565  0.0751544974470819
  0.4415229610300225  0.2204892617634824  0.8842156775667031
  0.5559647557261909  0.1102404098047285  0.6365496046276112
  0.1139323937995909  0.5616954932430563  0.3214374871247194
  0.2204239986300900  0.4431643513456902  0.0730407057093785
  0.7805247149941231  0.5594910489420922  0.8842157163856988
  0.8907735774984775  0.4450496079327835  0.6365496740373164
  0.4226967880181168  0.5783173354229866  0.3198348938050161
  0.5548515381997323  0.4461623212799220  0.1292928050845480
  0.1200150451923127  0.5602713273028592  0.8301215716180351
  0.1954690647252912  0.4342232250952225  0.5688581921729214
  0.8061943047512372  0.5675489051621103  0.3878571078575303
  0.8860694964214445  0.4467099390304100  0.1228376654742339
  0.4465994244682224  0.5544143223120849  0.8273242024655910
  0.5792987762052564  0.4217149859902751  0.6378414343199044
  0.1080412101231470  0.8929731302234601  0.3819495402426895
  0.2242238487573755  0.7767904613157457  0.0760957943207740
  0.7746508275355735  0.8925225766786090  0.8263892903528037
  0.8926946560044543  0.7760706796483360  0.6327669936472756
  0.4393190617612539  0.8870822989333977  0.3214375813754388
  0.5578496566168332  0.7805899485495180  0.0730406804772436
  0.1082205015267404  0.8927932999125179  0.8809988189449054
  0.2251603785163933  0.7758536914508889  0.5762181634814884
  0.7761808638636483  0.8934787662049504  0.3250254856399866
  0.8921108524797714  0.7755276229012471  0.1308733649357465
  0.4407430568811677  0.8809994861210918  0.8301216894619902
  0.5667906325206151  0.8055446798913974  0.5688582409895601
 
             NaN             NaN             NaN
             NaN             NaN             NaN
             NaN             NaN             NaN
             NaN             NaN             NaN
             NaN             NaN             NaN
             NaN             NaN             NaN
             NaN             NaN             NaN
             NaN             NaN             NaN
             NaN             NaN             NaN
             NaN             NaN             NaN
             NaN             NaN             NaN
             NaN             NaN             NaN
             NaN             NaN             NaN
             NaN             NaN             NaN
             NaN             NaN             NaN
             NaN             NaN             NaN
             NaN             NaN             NaN
             NaN             NaN             NaN
             NaN             NaN             NaN
             NaN             NaN             NaN
             NaN             NaN             NaN
             NaN             NaN             NaN
             NaN             NaN             NaN
             NaN             NaN             NaN
             NaN             NaN             NaN
             NaN             NaN             NaN
             NaN             NaN             NaN
             NaN             NaN             NaN
             NaN             NaN             NaN
             NaN             NaN             NaN
             NaN             NaN             NaN
             NaN             NaN             NaN
             NaN             NaN             NaN
             NaN             NaN             NaN
             NaN             NaN             NaN
             NaN             NaN             NaN
             NaN             NaN             NaN
             NaN             NaN             NaN
             NaN             NaN             NaN
             NaN             NaN             NaN
             NaN             NaN             NaN
             NaN             NaN             NaN
             NaN             NaN             NaN
             NaN             NaN             NaN
             NaN             NaN             NaN
             NaN             NaN             NaN
             NaN             NaN             NaN
             NaN             NaN             NaN
             NaN             NaN             NaN
             NaN             NaN             NaN
             NaN             NaN             NaN
             NaN             NaN             NaN
             NaN             NaN             NaN
             NaN             NaN             NaN
             NaN             NaN             NaN
             NaN             NaN             NaN
             NaN             NaN             NaN
             NaN             NaN             NaN
             NaN             NaN             NaN
             NaN             NaN             NaN
             NaN             NaN             NaN
             NaN             NaN             NaN
             NaN             NaN             NaN
             NaN             NaN             NaN
             NaN             NaN             NaN
             NaN             NaN             NaN
             NaN             NaN             NaN
             NaN             NaN             NaN
             NaN             NaN             NaN
             NaN             NaN             NaN
             NaN             NaN             NaN
             NaN             NaN             NaN
