Al   Hf   N                             
   1.00000000000000     
     9.5621751952165983   -0.0095019869717815    0.0246387816303713
    -4.8079806377425705    8.2515312430708647   -0.0233376238332270
     0.0718155384490052   -0.0563218680290036   10.2026606278434215
   Al   Hf   N 
    34     2    36
Direct
  0.2223443934425169  0.1038428307485259  0.3227431827259580
  0.1154950023690116  0.2274347573834201  0.1353382764614795
  0.8835278959573666  0.1108493380685944  0.8273724105426763
  0.7776265950567659  0.2226667049395932  0.5727201250420043
  0.5561791731775294  0.1083727083535267  0.3192255777818515
  0.4455875217938025  0.2245073761735910  0.0737955733656586
  0.2257734162020799  0.1075177472650098  0.8261886772050903
  0.1099051280235865  0.2234325993213052  0.6409354916799532
  0.8841795292046976  0.1128833584110437  0.3195984761278747
  0.7773521696103466  0.2234766063995748  0.0697931472226455
  0.5559623534910533  0.1089195436763871  0.8225689893602522
  0.4430416724880979  0.2108165136872477  0.5770245939759596
  0.2111402782449188  0.4393418730542409  0.3862397260106589
  0.1068942447354882  0.5590237139485507  0.0701003144030259
  0.8920220500903249  0.4447640866998397  0.8227251633117186
  0.7905068029011761  0.5579215466842730  0.5770976416052854
  0.4366666229273382  0.5633076795413726  0.1363150729334099
  0.2263997070429318  0.4415673770059064  0.8897394696377868
  0.1018590450101408  0.5601183595705136  0.5693268485602831
  0.8929487506799761  0.4448557269417600  0.3195535995145150
  0.7768083269225917  0.5553299183642725  0.0736423957024703
  0.5645358971522169  0.4373097676790635  0.8290797776356169
  0.2223736132455640  0.7775939699145269  0.3198061898124465
  0.1129063728934647  0.8885452157493628  0.0702157908629940
  0.8924108844472354  0.7773805065571522  0.8266286197310457
  0.7824518988709676  0.8923911663434766  0.6095964672671141
  0.5590650746756307  0.7888018837425351  0.3839065949396561
  0.4407939331572463  0.8939348479615021  0.0706797757438257
  0.2234651054106893  0.7770801121443245  0.8204715972539582
  0.1119107867823996  0.8901478112276239  0.5711379901022572
  0.8966540116132072  0.7802272283010013  0.3218690502975098
  0.7784177643144132  0.8881434161181972  0.1098093664953449
  0.5579853372310521  0.7738903180046495  0.8899918809195013
  0.4392632192927410  0.8991748032696039  0.5692092296586034
  0.5500060383124208  0.4522865829091888  0.3553879774370010
  0.4493842945388585  0.5510409633369943  0.6123134456365030
  0.1132796826812865  0.2253714162719281  0.3283603560675908
  0.2261155374714832  0.1071459116644491  0.1307100752447034
  0.7767338532625007  0.2237127805939824  0.8821695071525889
  0.8845743584180394  0.1132993001615503  0.6315978430774392
  0.4354601466402316  0.1980152768705722  0.3889405011991944
  0.5569574506299830  0.1138851447074721  0.1311820160662832
  0.1136016865416713  0.2252894410059614  0.8345398663452942
  0.2247567540919349  0.1071958123108915  0.6347647279106136
  0.7771723961995209  0.2234997542739867  0.3820974706880313
  0.8859610220318080  0.1149731443347168  0.1254056787822923
  0.4450149231337874  0.2190966474218881  0.8860877738541746
  0.5573846948196336  0.1096464194264724  0.6353379803688033
  0.1056285148950528  0.5608945070394747  0.3795333160916776
  0.2220338461822503  0.4424099409457049  0.0772650196965617
  0.7826716559311290  0.5564348280193113  0.8858045043719621
  0.8915636530969533  0.4433207058069649  0.6354599825166081
  0.4195431448598822  0.5794564111082106  0.3207092797495557
  0.5546481104858524  0.4470533652826155  0.1311735082512219
  0.1109858290545069  0.5589164636122258  0.8799473627809814
  0.1979921600125308  0.4317717554733402  0.5758143443122654
  0.8041161940363198  0.5664698403807884  0.3890487668185371
  0.8875127397076646  0.4441156067665016  0.1312675492063562
  0.4471302575134100  0.5535049840049241  0.8323493850688074
  0.5790200188954150  0.4226767030430422  0.6414756860456730
  0.1116551675147556  0.8892249324937695  0.3830361086350113
  0.2218533238327910  0.7781101534543262  0.1313234829983640
  0.7804983403129365  0.8886010761869807  0.8589864836104643
  0.8934520871375258  0.7779574433585210  0.6353015011343693
  0.4391514164055820  0.8955446903649479  0.3791149892180778
  0.5549500967470874  0.7779102913793493  0.0797956288682213
  0.1131313046751490  0.8879403699749872  0.8826644823322171
  0.2211062525168676  0.7788551272087256  0.6310246619268193
  0.7789406292108004  0.8888612066003363  0.3439896763516033
  0.8937621744109552  0.7758169366364021  0.1311050556152307
  0.4415896683997035  0.8900072588735192  0.8800864301853825
  0.5650297781935996  0.8016051735518094  0.5767853876207830
 
             NaN             NaN             NaN
             NaN             NaN             NaN
             NaN             NaN             NaN
             NaN             NaN             NaN
             NaN             NaN             NaN
             NaN             NaN             NaN
             NaN             NaN             NaN
             NaN             NaN             NaN
             NaN             NaN             NaN
             NaN             NaN             NaN
             NaN             NaN             NaN
             NaN             NaN             NaN
             NaN             NaN             NaN
             NaN             NaN             NaN
             NaN             NaN             NaN
             NaN             NaN             NaN
             NaN             NaN             NaN
             NaN             NaN             NaN
             NaN             NaN             NaN
             NaN             NaN             NaN
             NaN             NaN             NaN
             NaN             NaN             NaN
             NaN             NaN             NaN
             NaN             NaN             NaN
             NaN             NaN             NaN
             NaN             NaN             NaN
             NaN             NaN             NaN
             NaN             NaN             NaN
             NaN             NaN             NaN
             NaN             NaN             NaN
             NaN             NaN             NaN
             NaN             NaN             NaN
             NaN             NaN             NaN
             NaN             NaN             NaN
             NaN             NaN             NaN
             NaN             NaN             NaN
             NaN             NaN             NaN
             NaN             NaN             NaN
             NaN             NaN             NaN
             NaN             NaN             NaN
             NaN             NaN             NaN
             NaN             NaN             NaN
             NaN             NaN             NaN
             NaN             NaN             NaN
             NaN             NaN             NaN
             NaN             NaN             NaN
             NaN             NaN             NaN
             NaN             NaN             NaN
             NaN             NaN             NaN
             NaN             NaN             NaN
             NaN             NaN             NaN
             NaN             NaN             NaN
             NaN             NaN             NaN
             NaN             NaN             NaN
             NaN             NaN             NaN
             NaN             NaN             NaN
             NaN             NaN             NaN
             NaN             NaN             NaN
             NaN             NaN             NaN
             NaN             NaN             NaN
             NaN             NaN             NaN
             NaN             NaN             NaN
             NaN             NaN             NaN
             NaN             NaN             NaN
             NaN             NaN             NaN
             NaN             NaN             NaN
             NaN             NaN             NaN
             NaN             NaN             NaN
             NaN             NaN             NaN
             NaN             NaN             NaN
             NaN             NaN             NaN
             NaN             NaN             NaN
