Al   Hf   N                             
   1.00000000000000     
     9.5393172228541623   -0.0139720222131644    0.0271751099066339
    -4.7827964200721667    8.2750804319260389   -0.0270615878146434
     0.0565133436121198   -0.0177369383446391   10.0527864802396749
   Al   Hf   N 
    34     2    36
Direct
  0.2179091090479588  0.1034762350397500  0.3131031192974945
  0.1085670472804168  0.2175334869114280  0.0640502991107255
  0.8898606144290113  0.1111641842281301  0.8118308578674771
  0.7790072473614984  0.2228033568779395  0.5661577318344442
  0.5564359009168243  0.1071901129698247  0.3122940399016230
  0.4442590218903320  0.2238460896804639  0.0650320542968146
  0.2215464187808465  0.1097000743571428  0.8159489986006250
  0.1051791447479005  0.2123719608293371  0.5631140605421550
  0.8877023111538520  0.1109026551446206  0.3113131540437166
  0.7782663403125198  0.2231566836267760  0.0627890790267216
  0.5567996026019273  0.1106568287939851  0.8154293473695589
  0.4401996975470439  0.2071793164182623  0.5699597283684952
  0.2082374916787515  0.4394976016581538  0.3645732876188177
  0.1082266482860277  0.5602291519557667  0.0633996302402196
  0.8906416247518436  0.4445878494287854  0.8150940612389945
  0.7911847302611079  0.5604009135970784  0.5697279444121222
  0.4371554359017580  0.5591158027451399  0.1256068324678168
  0.2267096080648017  0.4463905141322329  0.8674973850814922
  0.1032389540732694  0.5590657627143756  0.5640133745466187
  0.8930445291895310  0.4447934654542465  0.3110373101508159
  0.7765453050053281  0.5571652999125831  0.0647270898144541
  0.5617153782034094  0.4387368849688471  0.8170412851564777
  0.2226574118938700  0.7789558851418121  0.3139202334807223
  0.1116701133436422  0.8891348840062463  0.0637245748522162
  0.8900544384520614  0.7791986322959588  0.8165545646742132
  0.7807013900047792  0.8915283572196628  0.5616880634810570
  0.5601982521246001  0.7950013197862162  0.3103063580791385
  0.4440658113164133  0.8920577268496430  0.0623884070604248
  0.2227936887274211  0.7789166481819194  0.8131638448852456
  0.1110867719414870  0.8889579019592304  0.5647220755654487
  0.8948598873476641  0.7824638675168600  0.3138880121910859
  0.7796242643261309  0.8911654961346400  0.0624358014883413
  0.5602387678887055  0.7861821266103419  0.8156786841969179
  0.4462311821480682  0.8952995050485058  0.5633027270517061
  0.5543286231802114  0.4452785847980110  0.3485724849831300
  0.4497302790039157  0.5537683598502241  0.5886235435178975
  0.1060660662890598  0.2123077745725368  0.3679963707923406
  0.2219088554590698  0.1106316901626911  0.1227039168989918
  0.7791283440183392  0.2224285881404739  0.8721512172267936
  0.8884519943705769  0.1099532100824376  0.6214825097946317
  0.4309449300725632  0.1918075337977143  0.3796054585519926
  0.5562528704805914  0.1136012068768935  0.1218328588373154
  0.1085191534285315  0.2162314489245674  0.8713161338301632
  0.2199329913806878  0.1085518722886647  0.6256840100690511
  0.7783481856783396  0.2234071603473922  0.3724190948874480
  0.8880830144189247  0.1124127674541384  0.1215529000104993
  0.4435576546484725  0.2195355508705319  0.8749085331738513
  0.5573496571690200  0.1090393993251766  0.6260026008306099
  0.1062580942922722  0.5605098923260172  0.3703158972375604
  0.2202840315907935  0.4450804999981699  0.0798553749718565
  0.7809645769858946  0.5572646799442538  0.8746767450981636
  0.8903658279088660  0.4436560840561654  0.6263176265290582
  0.4232122567919845  0.5728953526458724  0.3245940882378022
  0.5544708407256991  0.4460930439785500  0.1215719166909111
  0.1103400908866945  0.5603204324416211  0.8710426043304977
  0.1959620092281327  0.4326105157647291  0.5839270388540143
  0.8077102739616464  0.5694639479573240  0.3793859378087134
  0.8869122993255658  0.4448820644941236  0.1211728512054790
  0.4479136406567790  0.5549734847734200  0.8231830789837531
  0.5756251768209140  0.4220323285721435  0.6257974229421563
  0.1110856684037103  0.8885367387772760  0.3737033681041453
  0.2227725174017934  0.7802013270382204  0.1231230771214626
  0.7803540460747911  0.8908617319816372  0.8731287866008515
  0.8905638524509101  0.7807371413939634  0.6258229714279722
  0.4441223693211782  0.8916654837756965  0.3728131199253966
  0.5603295949905274  0.7891140909764971  0.1178777375576132
  0.1118128685254334  0.8887936293714347  0.8734521643502262
  0.2230701767187568  0.7798505362512529  0.6215481862014158
  0.7790714669465686  0.8903222345269839  0.3696586003884477
  0.8891697725421395  0.7794267088757962  0.1226971575976279
  0.4431639305408552  0.8896102821729954  0.8734124070755556
  0.5693172217356377  0.8080833196269950  0.6254429222959601
 
             NaN             NaN             NaN
             NaN             NaN             NaN
             NaN             NaN             NaN
             NaN             NaN             NaN
             NaN             NaN             NaN
             NaN             NaN             NaN
             NaN             NaN             NaN
             NaN             NaN             NaN
             NaN             NaN             NaN
             NaN             NaN             NaN
             NaN             NaN             NaN
             NaN             NaN             NaN
             NaN             NaN             NaN
             NaN             NaN             NaN
             NaN             NaN             NaN
             NaN             NaN             NaN
             NaN             NaN             NaN
             NaN             NaN             NaN
             NaN             NaN             NaN
             NaN             NaN             NaN
             NaN             NaN             NaN
             NaN             NaN             NaN
             NaN             NaN             NaN
             NaN             NaN             NaN
             NaN             NaN             NaN
             NaN             NaN             NaN
             NaN             NaN             NaN
             NaN             NaN             NaN
             NaN             NaN             NaN
             NaN             NaN             NaN
             NaN             NaN             NaN
             NaN             NaN             NaN
             NaN             NaN             NaN
             NaN             NaN             NaN
             NaN             NaN             NaN
             NaN             NaN             NaN
             NaN             NaN             NaN
             NaN             NaN             NaN
             NaN             NaN             NaN
             NaN             NaN             NaN
             NaN             NaN             NaN
             NaN             NaN             NaN
             NaN             NaN             NaN
             NaN             NaN             NaN
             NaN             NaN             NaN
             NaN             NaN             NaN
             NaN             NaN             NaN
             NaN             NaN             NaN
             NaN             NaN             NaN
             NaN             NaN             NaN
             NaN             NaN             NaN
             NaN             NaN             NaN
             NaN             NaN             NaN
             NaN             NaN             NaN
             NaN             NaN             NaN
             NaN             NaN             NaN
             NaN             NaN             NaN
             NaN             NaN             NaN
             NaN             NaN             NaN
             NaN             NaN             NaN
             NaN             NaN             NaN
             NaN             NaN             NaN
             NaN             NaN             NaN
             NaN             NaN             NaN
             NaN             NaN             NaN
             NaN             NaN             NaN
             NaN             NaN             NaN
             NaN             NaN             NaN
             NaN             NaN             NaN
             NaN             NaN             NaN
             NaN             NaN             NaN
             NaN             NaN             NaN
