Al   Hf   N                             
   1.00000000000000     
     9.5180122917966266   -0.0141997044024037    0.0128527304382116
    -4.7526491720913420    8.2465052347171142   -0.0127286112843798
     0.0853878517674375   -0.0496112086557834   10.3038704217477601
   Al   Hf   N 
    34     2    36
Direct
  0.2216554884596685  0.1042144646949979  0.3194043879864229
  0.1085031873510590  0.2252797812676895  0.1370627086683900
  0.8924793010331605  0.1085347766517955  0.8885558324616669
  0.7761716641119475  0.2248423739551106  0.5784364416048257
  0.5600345030441696  0.1135834740292915  0.3153163892252973
  0.4438673822111899  0.2242784961411423  0.0704227924048654
  0.2245343401396461  0.1088795188296622  0.8206224698093897
  0.1046068750831224  0.2225962990522163  0.6380912636490956
  0.8913673919120320  0.1096468090779915  0.3883209653397249
  0.7755429825591666  0.2254709073331582  0.0689824031989792
  0.5580100687809073  0.1143973396740294  0.8246538204381079
  0.4430964915648553  0.2078475388944926  0.5742392423391732
  0.2078510923430567  0.4430747391767593  0.3827333371713824
  0.1161876960827639  0.5604399630048884  0.1344967002371625
  0.8866175244080666  0.4430046126995398  0.8246539036586344
  0.7931661464805431  0.5579173902702544  0.5742392704777669
  0.4385901072523879  0.5624239731999120  0.1330060478764367
  0.2247959835827504  0.4448223294439559  0.8867157237221008
  0.1146412841116061  0.5608573457533791  0.6415537926642189
  0.8874312037758540  0.4409801068836200  0.3153163635079923
  0.7767351983924192  0.5571463861603539  0.0704228147789710
  0.5626091809779888  0.4384050753282241  0.8242769485234340
  0.2252600155591576  0.7757545870451557  0.3865329643767711
  0.1078816161182753  0.8931321991371717  0.0686780835961369
  0.8921343787915149  0.7764796438829242  0.8206224433992162
  0.7784177147924972  0.8964072314305852  0.6380912433745554
  0.5579393295674334  0.7931630515430680  0.3827334380222628
  0.4405741029575123  0.8848261687013000  0.1344967770868616
  0.2255104123790703  0.7755041470382799  0.8901242554106348
  0.1080537566426689  0.8929600928586093  0.5689908770062053
  0.8967998542278077  0.7793588005043937  0.3194043749497986
  0.7757341771704274  0.8925107702852098  0.1370627470787446
  0.5561916564595939  0.7762180857636979  0.8867156790324642
  0.4401567831835467  0.8863726054066422  0.6415539030866250
  0.5511179225328978  0.4498964123319396  0.3524359337403399
  0.4507844777954139  0.5502292202823933  0.6037307631325534
  0.1076199535400156  0.2251453547468203  0.3244974485891122
  0.2257580431133610  0.1089493399201670  0.1311113632767195
  0.7762988728315807  0.2247156637253583  0.8800817679288084
  0.8926215139218521  0.1083925420256917  0.5762899474239030
  0.4337453249459148  0.1947353962658695  0.3882405370446609
  0.5578219986190058  0.1172307739832259  0.1260071100990097
  0.1085920972988421  0.2265069458136637  0.8263263753587624
  0.2251799296927703  0.1083550216293591  0.6331830881100100
  0.7758450725100897  0.2251694495557316  0.3774650869408732
  0.8926485948375509  0.1083653174313909  0.0758913604418280
  0.4421727434779143  0.2201235160161291  0.8845752878850668
  0.5593563820863128  0.1121793972512323  0.6369142003756343
  0.1133396984904898  0.5611984245035609  0.3217025459814931
  0.2202220014860965  0.4432541867538894  0.0729933673683273
  0.7808906084298567  0.5588413479703102  0.8845753391147478
  0.8888346845553297  0.4416579932000867  0.6369142771946601
  0.4226080908236055  0.5784056980752413  0.3196782966697017
  0.5546984495831703  0.4463157966763595  0.1295163836248318
  0.1191828100827841  0.5597578798981997  0.8300842561583055
  0.1952905525133568  0.4342272931076452  0.5687071404227050
  0.8062788398707952  0.5672688994650220  0.3882405239215957
  0.8837833444970467  0.4431922782176536  0.1260071196942278
  0.4465765753484489  0.5544369929178607  0.8272847254932375
  0.5791309738840714  0.4218832046997361  0.6379878309231979
  0.1079543647310289  0.8930599926675548  0.3821577852419056
  0.2242977444750797  0.7767164588679024  0.0762441019296377
  0.7745065880111679  0.8924215278318631  0.8263263312709872
  0.8926593302244555  0.7758345013384137  0.6331830446920496
  0.4398159072645735  0.8876747553318228  0.3217026458352145
  0.5577598681488201  0.7807920228467283  0.0729933543585034
  0.1081737180647569  0.8928402386263173  0.8812848579216673
  0.2251914783124362  0.7758226807747791  0.5763286252552976
  0.7758682950024450  0.8933937307218258  0.3244974927154996
  0.8920649142561615  0.7752562498140541  0.1311113563012464
  0.4412564516088894  0.8818318237118724  0.8300844043433779
  0.5667866936615544  0.8057233661173392  0.5687072011795732
 
             NaN             NaN             NaN
             NaN             NaN             NaN
             NaN             NaN             NaN
             NaN             NaN             NaN
             NaN             NaN             NaN
             NaN             NaN             NaN
             NaN             NaN             NaN
             NaN             NaN             NaN
             NaN             NaN             NaN
             NaN             NaN             NaN
             NaN             NaN             NaN
             NaN             NaN             NaN
             NaN             NaN             NaN
             NaN             NaN             NaN
             NaN             NaN             NaN
             NaN             NaN             NaN
             NaN             NaN             NaN
             NaN             NaN             NaN
             NaN             NaN             NaN
             NaN             NaN             NaN
             NaN             NaN             NaN
             NaN             NaN             NaN
             NaN             NaN             NaN
             NaN             NaN             NaN
             NaN             NaN             NaN
             NaN             NaN             NaN
             NaN             NaN             NaN
             NaN             NaN             NaN
             NaN             NaN             NaN
             NaN             NaN             NaN
             NaN             NaN             NaN
             NaN             NaN             NaN
             NaN             NaN             NaN
             NaN             NaN             NaN
             NaN             NaN             NaN
             NaN             NaN             NaN
             NaN             NaN             NaN
             NaN             NaN             NaN
             NaN             NaN             NaN
             NaN             NaN             NaN
             NaN             NaN             NaN
             NaN             NaN             NaN
             NaN             NaN             NaN
             NaN             NaN             NaN
             NaN             NaN             NaN
             NaN             NaN             NaN
             NaN             NaN             NaN
             NaN             NaN             NaN
             NaN             NaN             NaN
             NaN             NaN             NaN
             NaN             NaN             NaN
             NaN             NaN             NaN
             NaN             NaN             NaN
             NaN             NaN             NaN
             NaN             NaN             NaN
             NaN             NaN             NaN
             NaN             NaN             NaN
             NaN             NaN             NaN
             NaN             NaN             NaN
             NaN             NaN             NaN
             NaN             NaN             NaN
             NaN             NaN             NaN
             NaN             NaN             NaN
             NaN             NaN             NaN
             NaN             NaN             NaN
             NaN             NaN             NaN
             NaN             NaN             NaN
             NaN             NaN             NaN
             NaN             NaN             NaN
             NaN             NaN             NaN
             NaN             NaN             NaN
             NaN             NaN             NaN
