Al   Hf   N                             
   1.00000000000000     
     9.5055638912148659   -0.0152646012698510    0.0117344183701193
    -4.7498733292520461    8.2337538923515119   -0.0116167274349158
     0.0764521221509912   -0.0444142827858546   10.3416545445888097
   Al   Hf   N 
    34     2    36
Direct
  0.2220731470416656  0.1042695390521420  0.3189985774136576
  0.1086062152700008  0.2253248502679652  0.1367397807104038
  0.8926481250509910  0.1083659365701932  0.8889513553962436
  0.7756118131209927  0.2254022464883586  0.5705980217540232
  0.5602888273172190  0.1140619078349409  0.3165119599807203
  0.4447017000716937  0.2241570801057419  0.0707210850302515
  0.2250240662227991  0.1089077973538954  0.8207829095426666
  0.1040844999447210  0.2224432787733162  0.6385379878259855
  0.8927905583852792  0.1082236853965887  0.3885110188043097
  0.7751995049661577  0.2258144080993557  0.0674786924312669
  0.5596438591506188  0.1155530080008017  0.8221006951995740
  0.4430350912260924  0.2081961499134322  0.5745628022139475
  0.2082115578013017  0.4432381779972667  0.3829242562715913
  0.1156127773534675  0.5600570755883539  0.1355423492382404
  0.8854613184423926  0.4413703785598113  0.8221006925798631
  0.7928177577435129  0.5579789521368755  0.5745627970699765
  0.4383845587296281  0.5626297219071299  0.1325279792389882
  0.2241805123113030  0.4450145470565855  0.8867778103966334
  0.1141316391204605  0.5605498325657318  0.6410401949252036
  0.8869523897872564  0.4407255488160653  0.3165119627413282
  0.7768568949063577  0.5563123364483921  0.0707210901180193
  0.5625940891886749  0.4384201809506552  0.8249804537333316
  0.2251501209311715  0.7758642656299376  0.3872790981409385
  0.1080440098698396  0.8929700802551166  0.0685164320007427
  0.8921062824077445  0.7759900245476042  0.8207828792497556
  0.7785709477876354  0.8969297547502009  0.6385379260330811
  0.5577758491772821  0.7928024946604715  0.3829242871163919
  0.4409570069760418  0.8854011697874987  0.1355423662684519
  0.2255684479367215  0.7754458405220802  0.8900739894131294
  0.1078733492036784  0.8931407802624203  0.5691377665176922
  0.8967446243294732  0.7789409783020174  0.3189985574252205
  0.7756892924615015  0.8924079126814987  0.1367398264124279
  0.5559994427792967  0.7768334997079374  0.8867777650091887
  0.4404644161166522  0.8868824273474438  0.6410402275238032
  0.5504617947248995  0.4505520967874358  0.3523510218595479
  0.4507011214222153  0.5503129322455722  0.6049139235285353
  0.1079841419860773  0.2255331729502479  0.3235080750059558
  0.2262460442075855  0.1088240796093156  0.1314019370772508
  0.7760845841270404  0.2249298202647060  0.8815335697785165
  0.8930945306481103  0.1079195335922615  0.5749025282391282
  0.4338666367765585  0.1952246073198150  0.3890973568659110
  0.5592612260214216  0.1183672384387449  0.1285504665746646
  0.1085464568638310  0.2265622497853936  0.8261309326320778
  0.2253368997469770  0.1083657077692005  0.6340235735921835
  0.7755730991513969  0.2254414455081746  0.3815732010566149
  0.8926607070068103  0.1083531796819171  0.0755563399825161
  0.4430110834819633  0.2196997805071617  0.8850120495230984
  0.5608833110825486  0.1130261913249665  0.6353874269492010
  0.1131079598942780  0.5612201211921107  0.3222585444661720
  0.2196651451921307  0.4433484080990985  0.0725393907885357
  0.7813146749344686  0.5580032859985007  0.8850120613050984
  0.8879878169452222  0.4401309318564554  0.6353874540302318
  0.4221852701097324  0.5788286516707117  0.3183103499032204
  0.5546074941354393  0.4464067571841038  0.1297376149527175
  0.1184204848160574  0.5595707140845804  0.8289797723907086
  0.1953133514331323  0.4341893159946368  0.5683585899706213
  0.8057895295585947  0.5671476332214590  0.3890973110783369
  0.8826466725111259  0.4417528437341940  0.1285504927410566
  0.4463725791615102  0.5546412535859981  0.8276344976185034
  0.5789423213314325  0.4220718140597040  0.6392468918948161
  0.1076475056966715  0.8933669417350021  0.3827672266195098
  0.2246107664466204  0.7764031100164420  0.0759990330785185
  0.7744515894339330  0.8924673923326404  0.8261308719183473
  0.8926486092889552  0.7756774118271771  0.6340235300486304
  0.4397941611790851  0.8879063544135678  0.3222585607765151
  0.5576655997017590  0.7813488344659104  0.0725393726526905
  0.1080810910653009  0.8929332634132797  0.8819183974019560
  0.2251261856983056  0.7758878337920487  0.5761179018150689
  0.7754807556993086  0.8930298219720445  0.3235081406940254
  0.8921902080918575  0.7747682421318982  0.1314019098820745
  0.4414434944495232  0.8825938905039612  0.8289798576684092
  0.5668246530091747  0.8057005356410706  0.5683585908277373
 
             NaN             NaN             NaN
             NaN             NaN             NaN
             NaN             NaN             NaN
             NaN             NaN             NaN
             NaN             NaN             NaN
             NaN             NaN             NaN
             NaN             NaN             NaN
             NaN             NaN             NaN
             NaN             NaN             NaN
             NaN             NaN             NaN
             NaN             NaN             NaN
             NaN             NaN             NaN
             NaN             NaN             NaN
             NaN             NaN             NaN
             NaN             NaN             NaN
             NaN             NaN             NaN
             NaN             NaN             NaN
             NaN             NaN             NaN
             NaN             NaN             NaN
             NaN             NaN             NaN
             NaN             NaN             NaN
             NaN             NaN             NaN
             NaN             NaN             NaN
             NaN             NaN             NaN
             NaN             NaN             NaN
             NaN             NaN             NaN
             NaN             NaN             NaN
             NaN             NaN             NaN
             NaN             NaN             NaN
             NaN             NaN             NaN
             NaN             NaN             NaN
             NaN             NaN             NaN
             NaN             NaN             NaN
             NaN             NaN             NaN
             NaN             NaN             NaN
             NaN             NaN             NaN
             NaN             NaN             NaN
             NaN             NaN             NaN
             NaN             NaN             NaN
             NaN             NaN             NaN
             NaN             NaN             NaN
             NaN             NaN             NaN
             NaN             NaN             NaN
             NaN             NaN             NaN
             NaN             NaN             NaN
             NaN             NaN             NaN
             NaN             NaN             NaN
             NaN             NaN             NaN
             NaN             NaN             NaN
             NaN             NaN             NaN
             NaN             NaN             NaN
             NaN             NaN             NaN
             NaN             NaN             NaN
             NaN             NaN             NaN
             NaN             NaN             NaN
             NaN             NaN             NaN
             NaN             NaN             NaN
             NaN             NaN             NaN
             NaN             NaN             NaN
             NaN             NaN             NaN
             NaN             NaN             NaN
             NaN             NaN             NaN
             NaN             NaN             NaN
             NaN             NaN             NaN
             NaN             NaN             NaN
             NaN             NaN             NaN
             NaN             NaN             NaN
             NaN             NaN             NaN
             NaN             NaN             NaN
             NaN             NaN             NaN
             NaN             NaN             NaN
             NaN             NaN             NaN
