Al   Hf   N 
   1.00000000000000     
   9.5410017569110508  -0.0080552934383620   0.0237803017899634
  -4.7991981032531799   8.2461847034263194  -0.0222344219284943
   0.0779216610353820  -0.0467719877039358  10.2663593732053009
Al   Hf   N 
34  2  36  
Direct
  0.2228170680571679  0.1037538628022929  0.3221442944278152  
  0.1157250492631547  0.2273523709484095  0.1349680895074385  
  0.8855376095289742  0.1157044909370910  0.8270141466131378  
  0.7784880281256932  0.2227837848881364  0.5721948295585761  
  0.5561573016889554  0.1080104659966992  0.3189684676061191  
  0.4458458365288891  0.2241540661268502  0.0734027666104211  
  0.2260541492348054  0.1075767146000430  0.8253149937764306  
  0.1101812157642854  0.2236305321893042  0.6400053750593173  
  0.8856206916615932  0.1156365529391579  0.3201254300043033  
  0.7779714596968432  0.2232956297369384  0.0697682081526096  
  0.5559408489742523  0.1090418347921869  0.8220230902028902  
  0.4434298036449320  0.2106203558448314  0.5765129148156305  
  0.2124857817726493  0.4404748403235388  0.3858562494529565  
  0.1072638134711994  0.5592234877758457  0.0695498467361517  
  0.8922018195300438  0.4453047437694195  0.8220175131383272  
  0.7906398264002235  0.5578318410367444  0.5764832732935261  
  0.4374652623673470  0.5637841005884638  0.1348249320787005  
  0.2269896136027825  0.4420540740553491  0.8895911305497890  
  0.1022624783099175  0.5605195699914063  0.5688069049064097  
  0.8932556383454511  0.4451007057229788  0.3189586367569319  
  0.7770950914164629  0.5554129791268778  0.0734057216211497  
  0.5642195430127614  0.4370334826281592  0.8286680655510352  
  0.2235502006667360  0.7777206289302470  0.3194243903223395  
  0.1128441857883900  0.8884312301753496  0.0702373040701758  
  0.8936641747675793  0.7751763229991155  0.8252978567726927  
  0.7776256840753817  0.8910790586469020  0.6399994794973480  
  0.5607958885606195  0.7887632128394628  0.3858259717843424  
  0.4420686216557783  0.8939963189217650  0.0695587919777481  
  0.2239573774292722  0.7773044979284620  0.8198840432042616  
  0.1114171739377596  0.8898496665125748  0.5708278412490060  
  0.8975143921263253  0.7784387957176051  0.3221358959404057  
  0.7739509882752102  0.8855535356619200  0.1349519463281226  
  0.5592032784465530  0.7742506842811210  0.8896053379956967  
  0.4407556253740523  0.8990031916635743  0.5687931533016410  
  0.5489855346068424  0.4522525443162806  0.3540274961790999  
  0.4501478749757979  0.5511161932633968  0.6121469385037770  
  0.1141704618324582  0.2262917955962536  0.3274801183753908  
  0.2265303059388444  0.1068286137941001  0.1311983341841625  
  0.7765564952538213  0.2246924863042210  0.8828789966054700  
  0.8858620647587330  0.1153946746608128  0.6305341511481686  
  0.4357021267814645  0.1979259566528668  0.3892680678617637  
  0.5573109087972767  0.1133091127845560  0.1315138780858902  
  0.1144511113804043  0.2260985669160931  0.8336657769367761  
  0.2250828596436278  0.1069608460312708  0.6349874493101026  
  0.7772959876268573  0.2239660660861134  0.3821837889696766  
  0.8865799932894092  0.1147040354617630  0.1240100386718197  
  0.4449291064346284  0.2189875223722311  0.8863555421582632  
  0.5579265370910491  0.1093530811090417  0.6355842584427478  
  0.1057201747119763  0.5613273643131151  0.3798877459142531  
  0.2226701647366127  0.4423311783829362  0.0759097959907962  
  0.7822598107172283  0.5563114636875426  0.8863544210266383  
  0.8919026954077296  0.4433410438597392  0.6355799919514737  
  0.4200218083570917  0.5812187439638166  0.3179584354441829  
  0.5547379803009704  0.4464995098629032  0.1308297699555254  
  0.1109785997962192  0.5593546233929843  0.8801686297898499  
  0.1991184289593662  0.4322797270037881  0.5744467315291146  
  0.8033218454134001  0.5655458675742651  0.3892420808639940  
  0.8879506163017865  0.4439536860017625  0.1315079851591818  
  0.4472454786813884  0.5540034531923155  0.8312425467125806  
  0.5789741420323224  0.4222977576199298  0.6421076955168203  
  0.1118431508172790  0.8894242400273242  0.3833153724652334  
  0.2231468818835154  0.7781430630473167  0.1314683744461789  
  0.7751532922845357  0.8867903747018602  0.8336589318366734  
  0.8942916031879520  0.7761749922064993  0.6349667638305263  
  0.4399497919810855  0.8955425978434661  0.3798781447929827  
  0.5589519810108570  0.7785814477341972  0.0759220314892772  
  0.1129378870984112  0.8883029876821809  0.8832378224699724  
  0.2222610285448923  0.7790140128476892  0.6312387130155770  
  0.7749774243688350  0.8870879842804129  0.3274636029649258  
  0.8944546503367192  0.7747316337650005  0.1311945057328145  
  0.4419058355700898  0.8902685186892967  0.8801811711142520  
  0.5689909229988146  0.8021409490767724  0.5744183514686938  
