Al   Hf   N                             
   1.00000000000000     
     9.5347156747267441   -0.0057846711914959    0.0221171174859195
    -4.7573002712980292    8.2625812887981631   -0.0222748528608825
     0.0878361255959821   -0.0502460057911939   10.2763838552887137
   Al   Hf   N 
    34     2    36
Direct
  0.2201354161990796  0.1040706787811246  0.3191329553040481
  0.1091686221911330  0.2251406286440832  0.1360622830073785
  0.8900972295789356  0.1110710375727038  0.8894212869682919
  0.7793118896739155  0.2196400712673943  0.6404265674926729
  0.5535707150510146  0.1091173564850826  0.3201287982704483
  0.4437714986427364  0.2244415257279750  0.0698284968673828
  0.2234643532881414  0.1088330123000979  0.8200959790891964
  0.1038427596273836  0.2224921221242419  0.6372542925361230
  0.8883825882525910  0.1120203817383696  0.3881384850902372
  0.7798191336388482  0.2194847348712707  0.1283584649445283
  0.5533955864804150  0.1102768031907904  0.8340835991962728
  0.4428352245185242  0.2083049848197288  0.5745158328669036
  0.2079296760265206  0.4425546283302171  0.3823893230505834
  0.1170827722946453  0.5608095515666757  0.1331378351197306
  0.8903230906726799  0.4483785638112880  0.8264659104813938
  0.7931916593498107  0.5579785374366604  0.5738697344447432
  0.4387963513902107  0.5618809353566099  0.1322063265981846
  0.2246775727075700  0.4441564735405067  0.8862071155243969
  0.1150657218161873  0.5617525906612343  0.6401375412259969
  0.8908744615860070  0.4475114822580973  0.3153615584128568
  0.7767559214961824  0.5562508535603826  0.0696271151553997
  0.5628024647056312  0.4383440029497848  0.8232881218832698
  0.2251565087855431  0.7756088664510419  0.3864870934844798
  0.1080584301783255  0.8926639913399844  0.0684630892155720
  0.8922192427755412  0.7772691403935126  0.8203725290283890
  0.7783900951213982  0.8965192776594948  0.6373260653321294
  0.5581810521855297  0.7922484871768619  0.3826189666897250
  0.4404307473361454  0.8843413071130708  0.1326611755889983
  0.2255127051940903  0.7751141781818096  0.8897736281175456
  0.1081203568149526  0.8930690937264024  0.5689149345507651
  0.8967561840867589  0.7800661272345136  0.3193051466678680
  0.7756253546125531  0.8910577792762582  0.1361214842384211
  0.5569191170138569  0.7758087109635576  0.8864806126488192
  0.4400014093926766  0.8872243312859444  0.6411490063987771
  0.5506032679160647  0.4506597419689852  0.3528379846640937
  0.4501222888448340  0.5506709378843907  0.6043598911019240
  0.1066973739605023  0.2246274538670239  0.3245890979316849
  0.2252228988037217  0.1086509552539102  0.1303196188029017
  0.7810600166997592  0.2204711570111296  0.8375180096750663
  0.8894527559229188  0.1110146485966216  0.5754770656815931
  0.4323028713202515  0.1956796070305308  0.3876749759268465
  0.5537063822717961  0.1125721805699398  0.1159979909785676
  0.1078607792198939  0.2258918451098652  0.8267143471203557
  0.2239072803263926  0.1086644735329885  0.6320968341996431
  0.7801025294001892  0.2198197477839592  0.3269539000856680
  0.8913784654020427  0.1091117574836347  0.0751763086623623
  0.4410635097530067  0.2211787405819563  0.8838042355857181
  0.5544017535948524  0.1092631326899204  0.6322549907184810
  0.1145038371770314  0.5618231988333819  0.3217621270770417
  0.2206053597603314  0.4428956240793899  0.0727966615229567
  0.7804685662945854  0.5590805532312937  0.8837280156800268
  0.8916846392188588  0.4464376646701116  0.6339474216257183
  0.4220314562019917  0.5783702967313766  0.3189313168517683
  0.5550915871933172  0.4458752299715514  0.1294460756607018
  0.1206068287392676  0.5603409421065807  0.8298051050091448
  0.1955819984552261  0.4342205030233736  0.5688135310472724
  0.8056495427306649  0.5678906966867671  0.3878441780920025
  0.8870739455691399  0.4470532624306716  0.1217185674177972
  0.4466856939206159  0.5541751314371470  0.8275932655517252
  0.5790169913134957  0.4226449567841337  0.6368168458296494
  0.1080860253961776  0.8927879395217002  0.3813773139425423
  0.2242839351172123  0.7764367372062636  0.0761584755178730
  0.7751815379740328  0.8929122054679323  0.8268832211643563
  0.8925604613426871  0.7766810495462031  0.6322528183122614
  0.4391612363161460  0.8861908727540008  0.3213380037715959
  0.5579139300268769  0.7798628472729128  0.0729714446323963
  0.1085815064562710  0.8925094706045777  0.8804189260643132
  0.2254151982511856  0.7763148531676582  0.5763244673853987
  0.7761123241331807  0.8934623066173231  0.3247273992601990
  0.8920943452476646  0.7749964980067382  0.1302774794298646
  0.4409598448782643  0.8805429619818110  0.8306925912241803
  0.5664351119166899  0.8051533268667490  0.5692429584140118
 
             NaN             NaN             NaN
             NaN             NaN             NaN
             NaN             NaN             NaN
             NaN             NaN             NaN
             NaN             NaN             NaN
             NaN             NaN             NaN
             NaN             NaN             NaN
             NaN             NaN             NaN
             NaN             NaN             NaN
             NaN             NaN             NaN
             NaN             NaN             NaN
             NaN             NaN             NaN
             NaN             NaN             NaN
             NaN             NaN             NaN
             NaN             NaN             NaN
             NaN             NaN             NaN
             NaN             NaN             NaN
             NaN             NaN             NaN
             NaN             NaN             NaN
             NaN             NaN             NaN
             NaN             NaN             NaN
             NaN             NaN             NaN
             NaN             NaN             NaN
             NaN             NaN             NaN
             NaN             NaN             NaN
             NaN             NaN             NaN
             NaN             NaN             NaN
             NaN             NaN             NaN
             NaN             NaN             NaN
             NaN             NaN             NaN
             NaN             NaN             NaN
             NaN             NaN             NaN
             NaN             NaN             NaN
             NaN             NaN             NaN
             NaN             NaN             NaN
             NaN             NaN             NaN
             NaN             NaN             NaN
             NaN             NaN             NaN
             NaN             NaN             NaN
             NaN             NaN             NaN
             NaN             NaN             NaN
             NaN             NaN             NaN
             NaN             NaN             NaN
             NaN             NaN             NaN
             NaN             NaN             NaN
             NaN             NaN             NaN
             NaN             NaN             NaN
             NaN             NaN             NaN
             NaN             NaN             NaN
             NaN             NaN             NaN
             NaN             NaN             NaN
             NaN             NaN             NaN
             NaN             NaN             NaN
             NaN             NaN             NaN
             NaN             NaN             NaN
             NaN             NaN             NaN
             NaN             NaN             NaN
             NaN             NaN             NaN
             NaN             NaN             NaN
             NaN             NaN             NaN
             NaN             NaN             NaN
             NaN             NaN             NaN
             NaN             NaN             NaN
             NaN             NaN             NaN
             NaN             NaN             NaN
             NaN             NaN             NaN
             NaN             NaN             NaN
             NaN             NaN             NaN
             NaN             NaN             NaN
             NaN             NaN             NaN
             NaN             NaN             NaN
             NaN             NaN             NaN
