Al   Hf   N                             
   1.00000000000000     
     9.5247745141630471   -0.0125925401730284    0.0186668533956079
    -4.7868481451580722    8.2320869073653036   -0.0237202346516936
     0.0778927944569178   -0.0417569479381613   10.2692226714546244
   Al   Hf   N 
    34     2    36
Direct
  0.2207369214439069  0.1039936932968158  0.3180180620797388
  0.1075663585747089  0.2253083186676959  0.1345900746439406
  0.8887529001377983  0.1116751093577744  0.8876358586402573
  0.7780496981522735  0.2227023040100400  0.6387542169285629
  0.5606668463366153  0.1026997164722861  0.3897247457974075
  0.4411876919765554  0.2258999820809706  0.0692326034297281
  0.2241251525238923  0.1086216663748247  0.8201941402691579
  0.1037431581910839  0.2218535701597091  0.6367840640288177
  0.8898009719907491  0.1104102068688915  0.3872579871489858
  0.7773592401757812  0.2232131367180674  0.1380985906297829
  0.5591714319379506  0.1073531798170334  0.8885476260261060
  0.4406029808514755  0.2122044608188207  0.5735845695792987
  0.2096992502310165  0.4422394574978630  0.3819042487903987
  0.1087367518313784  0.5570609274669142  0.1358293042031306
  0.8931929171393800  0.4415397568666902  0.8887352272591902
  0.7883109156496860  0.5603154899923585  0.5726906416547916
  0.4363504664947934  0.5641531586737827  0.1295315580663603
  0.2236742312615702  0.4439605078087254  0.8849716843254056
  0.1076060897670656  0.5567270314584197  0.6390503510634935
  0.8979098881121831  0.4400527525197411  0.3892793433848751
  0.7749343193878623  0.5595993029680373  0.0693606127774430
  0.5634980327082626  0.4374538834527760  0.8244064006798941
  0.2255552156898718  0.7753527334248144  0.3856560519263498
  0.1089065717521434  0.8922291554881920  0.0669364355048839
  0.8920579909587444  0.7763328570977849  0.8197980255053744
  0.7783801155679922  0.8965114300357679  0.6366404614623714
  0.5584619249646230  0.7906203979836774  0.3817666538904706
  0.4437325004188576  0.8920172712863926  0.1358269171628289
  0.2256434891434421  0.7749218574038638  0.8873288745223006
  0.1087146210792700  0.8917164181201044  0.5687316982628593
  0.8974092030795873  0.7800802386789715  0.3168769403109467
  0.7752660194094373  0.8930273916799329  0.1343986531812527
  0.5565990326398806  0.7766645408074597  0.8848866554901322
  0.4436787016835589  0.8924965861710668  0.6391497061255240
  0.5506199258734799  0.4500811324953528  0.3461701012514651
  0.4513182191983173  0.5487445230391975  0.6045665836851000
  0.1070891197326706  0.2242761818499568  0.3233695629197059
  0.2241058427141098  0.1086232657028436  0.1291438666844650
  0.7782618555850713  0.2224795845721821  0.8266613326383994
  0.8897436280655122  0.1105452776533038  0.5746151045458884
  0.4317052932977609  0.1989030111641314  0.3841548781522058
  0.5594670988936733  0.1109333504588925  0.0776901888843079
  0.1071962821704019  0.2250683754199077  0.8263837601354971
  0.2239367977731952  0.1076638754640383  0.6325328194006049
  0.7789676488148628  0.2215017270220075  0.3266831308536042
  0.8887995666999499  0.1117953762004972  0.0747513695387597
  0.4402088675801039  0.2211836472986750  0.8822316397789599
  0.5615799187101367  0.1054088553131694  0.5784545619841640
  0.1083339842946104  0.5575135502950659  0.3219396465627229
  0.2182258642261551  0.4436714337100486  0.0719618210136947
  0.7795479134024362  0.5606421636897745  0.8824868687620254
  0.8948555601191028  0.4390702690109753  0.5779593110723582
  0.4214536789981501  0.5788270052291192  0.3162529717337375
  0.5536988393628469  0.4471718261781512  0.1267888997814249
  0.1124305767566402  0.5561782173742656  0.8262350957429904
  0.1967790618623792  0.4343496605480894  0.5689881101005809
  0.8020029846164238  0.5692431521143946  0.3832611282086492
  0.8897541212037675  0.4412199161185656  0.0778611850592396
  0.4458792438204526  0.5543863721038812  0.8275586660702030
  0.5810099509575907  0.4200090773613609  0.6413391038709436
  0.1086041673417632  0.8922377965369362  0.3809175239063978
  0.2250066425853118  0.7758105058610664  0.0763151371582511
  0.7754103007264751  0.8931516373840752  0.8262103810742506
  0.8928731893583317  0.7765756739909747  0.6323438399496012
  0.4433798355754623  0.8923507816708636  0.3220013298468394
  0.5569301888226901  0.7822657802466650  0.0718803425887883
  0.1089529308397519  0.8915942395561973  0.8794387534784006
  0.2253684847517609  0.7750908254100108  0.5766515875365573
  0.7763496549137330  0.8931130886703691  0.3230901123883687
  0.8925555673954941  0.7768765874435626  0.1288087874942047
  0.4443436012483742  0.8878760013788696  0.8262715936075284
  0.5659345684469248  0.8032878309754646  0.5688512473867154
 
             NaN             NaN             NaN
             NaN             NaN             NaN
             NaN             NaN             NaN
             NaN             NaN             NaN
             NaN             NaN             NaN
             NaN             NaN             NaN
             NaN             NaN             NaN
             NaN             NaN             NaN
             NaN             NaN             NaN
             NaN             NaN             NaN
             NaN             NaN             NaN
             NaN             NaN             NaN
             NaN             NaN             NaN
             NaN             NaN             NaN
             NaN             NaN             NaN
             NaN             NaN             NaN
             NaN             NaN             NaN
             NaN             NaN             NaN
             NaN             NaN             NaN
             NaN             NaN             NaN
             NaN             NaN             NaN
             NaN             NaN             NaN
             NaN             NaN             NaN
             NaN             NaN             NaN
             NaN             NaN             NaN
             NaN             NaN             NaN
             NaN             NaN             NaN
             NaN             NaN             NaN
             NaN             NaN             NaN
             NaN             NaN             NaN
             NaN             NaN             NaN
             NaN             NaN             NaN
             NaN             NaN             NaN
             NaN             NaN             NaN
             NaN             NaN             NaN
             NaN             NaN             NaN
             NaN             NaN             NaN
             NaN             NaN             NaN
             NaN             NaN             NaN
             NaN             NaN             NaN
             NaN             NaN             NaN
             NaN             NaN             NaN
             NaN             NaN             NaN
             NaN             NaN             NaN
             NaN             NaN             NaN
             NaN             NaN             NaN
             NaN             NaN             NaN
             NaN             NaN             NaN
             NaN             NaN             NaN
             NaN             NaN             NaN
             NaN             NaN             NaN
             NaN             NaN             NaN
             NaN             NaN             NaN
             NaN             NaN             NaN
             NaN             NaN             NaN
             NaN             NaN             NaN
             NaN             NaN             NaN
             NaN             NaN             NaN
             NaN             NaN             NaN
             NaN             NaN             NaN
             NaN             NaN             NaN
             NaN             NaN             NaN
             NaN             NaN             NaN
             NaN             NaN             NaN
             NaN             NaN             NaN
             NaN             NaN             NaN
             NaN             NaN             NaN
             NaN             NaN             NaN
             NaN             NaN             NaN
             NaN             NaN             NaN
             NaN             NaN             NaN
             NaN             NaN             NaN
