Al   Hf   N                             
   1.00000000000000     
     9.5028296287458183   -0.0086309053582413    0.0237414940626005
    -4.7577118838889954    8.2260571482794020   -0.0237051219100119
     0.0252266119025588   -0.0146111564088685   10.0884829329925036
   Al   Hf   N 
    34     2    36
Direct
  0.2189162247857652  0.1060523548439178  0.3002909532128513
  0.1098960639922666  0.2204817141268336  0.0488628365999517
  0.8900934617047156  0.1109831336447797  0.7970347670761413
  0.7787582352728606  0.2223185899304880  0.5509739966610141
  0.5574625051781581  0.1074993195086691  0.2984409106614265
  0.4428628958315883  0.2196568975789575  0.0492466130889397
  0.2217015292191178  0.1099629165497973  0.8009384003710025
  0.1103123280913110  0.2197886003351144  0.5474104726717144
  0.8894099294268116  0.1116668987246285  0.2984328850696158
  0.7785790899501421  0.2224974316233315  0.0481188654789193
  0.5563429591023450  0.1110264807798558  0.7992401886631555
  0.4425643165708593  0.2154811440613855  0.5545407467747197
  0.2117263511303307  0.4451075110256113  0.2912612182517407
  0.1097371537487746  0.5574663966487989  0.0479803514069985
  0.8900500874153252  0.4447335309226546  0.7992401446681825
  0.7855957169959780  0.5585124338551850  0.5545407047237489
  0.4425152728085422  0.5585615482706530  0.0445212921745508
  0.2146999601240438  0.4406661255028652  0.8035584956247916
  0.1070460403714293  0.5540916528118700  0.5486664098548388
  0.8935775155438961  0.4436141372933520  0.2984409427626957
  0.7814201746324230  0.5582139551210830  0.0492466650989982
  0.5611524656622606  0.4399245676447521  0.8109243250804710
  0.2231388078461976  0.7779378949289750  0.3008594652226293
  0.1120593902639442  0.8890175357591517  0.0499751186223065
  0.8911138887591790  0.7793752136668459  0.8009383993771166
  0.7812884588920497  0.8907644764348532  0.5474104654237237
  0.5559694219018141  0.7893507034478020  0.2912611936841429
  0.4436101412476958  0.8913393895685999  0.0479803449534160
  0.2228145475527867  0.7782620625598042  0.7988057645348192
  0.1123915079531770  0.8886854709846190  0.5507038217660565
  0.8950250061209744  0.7821609966215775  0.3002909675740213
  0.7805952813357138  0.8911807081836116  0.0488628908499891
  0.5604107249760162  0.7863768015142512  0.8035585039340702
  0.4469854607379631  0.8940310013503918  0.5486664054394268
  0.5520669581035378  0.4490103971434536  0.3170469800399403
  0.4495214755214292  0.5515555059255135  0.5576281740960098
  0.1120179758051449  0.2234075804186517  0.3550759683638418
  0.2218343156827558  0.1110938401235018  0.1097308769986540
  0.7788830233771122  0.2221935313921861  0.8576105567712631
  0.8903534272791802  0.1107234491391225  0.6062658454659484
  0.4352872698555927  0.1974146193871960  0.3634154883700873
  0.5570298296288101  0.1127477918248303  0.1082527868876895
  0.1101265730280829  0.2196402389687151  0.8597042011063678
  0.2205683030795029  0.1093017800447882  0.6110112275962649
  0.7786480675303906  0.2224286373219471  0.3585034202353583
  0.8888692989550506  0.1122075210111575  0.1083045088811048
  0.4422551945827493  0.2171143061591039  0.8615355831563249
  0.5569238858121039  0.1101380100548894  0.6101715178769211
  0.1088917170022157  0.5557931596553161  0.3581589585059959
  0.2186147535682963  0.4438166898356855  0.1007494831463944
  0.7839626082501283  0.5588215890026760  0.8615356367683162
  0.8909389423237997  0.4441529868360305  0.6101714805795098
  0.4235319432064841  0.5775451230022597  0.3405462444767906
  0.5541865968658755  0.4468904069107609  0.0959162317907243
  0.1108184512371508  0.5577555909009106  0.8593085845106998
  0.1989598756130562  0.4326235935594909  0.6154267700026281
  0.8036626909874158  0.5657898492682421  0.3634154714962108
  0.8883288724381728  0.4440467394008181  0.1082528223277421
  0.4446252709746616  0.5564516023079804  0.8483626692311077
  0.5738924273383716  0.4271845032030086  0.6258264549970747
  0.1119891714131285  0.8890881021911596  0.3601757244105315
  0.2224967942997509  0.7785798327854110  0.1095862681947111
  0.7814365949608586  0.8909501137442177  0.8597042482517665
  0.8917751489506500  0.7805084526863197  0.6110112307763629
  0.4452836077872391  0.8921851379710901  0.3581589577837931
  0.5572602522780699  0.7824621752441061  0.1007494552814450
  0.1122619023086173  0.8888149060659174  0.8597428446777116
  0.2236958037028387  0.7773812538023677  0.6073928467981844
  0.7776694443789509  0.8890589249374301  0.3550759472769869
  0.8899832073486778  0.7792425556161362  0.1097309082606444
  0.4433210321201315  0.8902581617026968  0.8593085790649369
  0.5684534940404546  0.8021171285887476  0.6154267658372561
 
             NaN             NaN             NaN
             NaN             NaN             NaN
             NaN             NaN             NaN
             NaN             NaN             NaN
             NaN             NaN             NaN
             NaN             NaN             NaN
             NaN             NaN             NaN
             NaN             NaN             NaN
             NaN             NaN             NaN
             NaN             NaN             NaN
             NaN             NaN             NaN
             NaN             NaN             NaN
             NaN             NaN             NaN
             NaN             NaN             NaN
             NaN             NaN             NaN
             NaN             NaN             NaN
             NaN             NaN             NaN
             NaN             NaN             NaN
             NaN             NaN             NaN
             NaN             NaN             NaN
             NaN             NaN             NaN
             NaN             NaN             NaN
             NaN             NaN             NaN
             NaN             NaN             NaN
             NaN             NaN             NaN
             NaN             NaN             NaN
             NaN             NaN             NaN
             NaN             NaN             NaN
             NaN             NaN             NaN
             NaN             NaN             NaN
             NaN             NaN             NaN
             NaN             NaN             NaN
             NaN             NaN             NaN
             NaN             NaN             NaN
             NaN             NaN             NaN
             NaN             NaN             NaN
             NaN             NaN             NaN
             NaN             NaN             NaN
             NaN             NaN             NaN
             NaN             NaN             NaN
             NaN             NaN             NaN
             NaN             NaN             NaN
             NaN             NaN             NaN
             NaN             NaN             NaN
             NaN             NaN             NaN
             NaN             NaN             NaN
             NaN             NaN             NaN
             NaN             NaN             NaN
             NaN             NaN             NaN
             NaN             NaN             NaN
             NaN             NaN             NaN
             NaN             NaN             NaN
             NaN             NaN             NaN
             NaN             NaN             NaN
             NaN             NaN             NaN
             NaN             NaN             NaN
             NaN             NaN             NaN
             NaN             NaN             NaN
             NaN             NaN             NaN
             NaN             NaN             NaN
             NaN             NaN             NaN
             NaN             NaN             NaN
             NaN             NaN             NaN
             NaN             NaN             NaN
             NaN             NaN             NaN
             NaN             NaN             NaN
             NaN             NaN             NaN
             NaN             NaN             NaN
             NaN             NaN             NaN
             NaN             NaN             NaN
             NaN             NaN             NaN
             NaN             NaN             NaN
