Al   Hf   N                             
   1.00000000000000     
     9.5605047466051705   -0.0109486805052010    0.0254972614707792
    -4.8056153228326126    8.2404161661014736   -0.0244408257379597
     0.0710105310199695   -0.0566048239888178   10.2055822531921567
   Al   Hf   N 
    34     2    36
Direct
  0.2225438795625847  0.1038940212785813  0.3228803481105452
  0.1150392300474818  0.2270215835435472  0.1360942349504658
  0.8818440915335067  0.1076004229741869  0.8248723926810139
  0.7775793320146377  0.2218484115372953  0.5733841098968147
  0.5565294418190364  0.1087800226541812  0.3192358847179139
  0.4455592297932030  0.2245692183574749  0.0738335398406006
  0.2257551948671221  0.1075204848171023  0.8261843933587076
  0.1088820824665134  0.2225782616246683  0.6412304095417375
  0.8835108512574714  0.1106069753739562  0.3192466245865669
  0.7772717455399382  0.2228584098580068  0.0703799147071952
  0.5560904274714532  0.1091418696046628  0.8225518503901409
  0.4430505043984790  0.2109728606168152  0.5771183810625219
  0.2111694837808941  0.4390785966555967  0.3866170767572332
  0.1068939560656450  0.5588870972052631  0.0701747338292195
  0.8920450697823950  0.4445545057993844  0.8229977938768310
  0.7906874743501396  0.5587453103569998  0.5776017507696711
  0.4371269386410520  0.5637638247067666  0.1362378324825797
  0.2257958061195258  0.4408874719000621  0.8899364163674874
  0.1018146866738674  0.5599348289221253  0.5694291871733529
  0.8929774008368595  0.4447392762759130  0.3199094060680794
  0.7767000124550025  0.5559480471214816  0.0742981420939881
  0.5649113899901412  0.4372919161806852  0.8291518007099447
  0.2220557844832243  0.7775893631604359  0.3199149736693601
  0.1124391961816504  0.8884300040622407  0.0707471558342357
  0.8918570862027847  0.7787343777243210  0.8250870182875949
  0.7876276999539021  0.8947006863451858  0.5721666271396704
  0.5565211978248494  0.7875910395490711  0.3840845507514362
  0.4407796410256152  0.8938150456546599  0.0714085514392016
  0.2229843115897645  0.7770003767008214  0.8205399472140581
  0.1114009324380350  0.8899465999494139  0.5717016486644060
  0.8966231006332201  0.7817101876964960  0.3218045801361260
  0.7841521298070739  0.8913262400413207  0.0761533935982887
  0.5552690574499357  0.7728355055683009  0.8895605261913542
  0.4388834977904381  0.8989761466662526  0.5698508092997292
  0.5501679500711847  0.4522563955392533  0.3556257911652610
  0.4498291235418002  0.5517136664096555  0.6130791087729363
  0.1132805376396816  0.2251962341079383  0.3284566418090768
  0.2260885910844768  0.1071702805079867  0.1307809580318286
  0.7770496921468192  0.2226788321697867  0.8823896951525111
  0.8821275564276423  0.1087734315753149  0.6329867248240120
  0.4356073299266815  0.1980338827930502  0.3890532050471762
  0.5568474880730430  0.1141531781367854  0.1312966658329587
  0.1127712351864125  0.2245532369324636  0.8345231186174974
  0.2248400513100797  0.1073331954288490  0.6348209390043272
  0.7774544779658625  0.2229266817636239  0.3823217563592542
  0.8838066822498613  0.1115186247281660  0.1283525723228012
  0.4450194984604346  0.2190784017277956  0.8861937977309230
  0.5571782476561811  0.1098919792511834  0.6355231396072530
  0.1058102168799745  0.5607993102409120  0.3796749731172596
  0.2217327195812902  0.4419830274015125  0.0773784362802315
  0.7830982194300313  0.5572198358749268  0.8860195037907344
  0.8914760543216285  0.4432443384020615  0.6356914941386905
  0.4197118294993258  0.5792493181553731  0.3203430743887472
  0.5545959652705174  0.4469954952278802  0.1313223870998378
  0.1110517292679327  0.5588064927269715  0.8801067466809426
  0.1978326327002063  0.4313862583208680  0.5760807806688947
  0.8045106663518309  0.5671092793204289  0.3891371507817132
  0.8874810837948507  0.4442131794993304  0.1314377121307538
  0.4472687355449870  0.5533681776878115  0.8327843173217939
  0.5792377527325260  0.4229047698118071  0.6416852102280707
  0.1118714457926235  0.8891348768265855  0.3832197219613839
  0.2212841482258492  0.7780508553882178  0.1314645120384388
  0.7852251320983226  0.8906202927122019  0.8817605895830444
  0.8913389002588484  0.7802072061977414  0.6356773949216488
  0.4391583185587198  0.8958239960819747  0.3789318283006509
  0.5545647158893743  0.7784787280015985  0.0814017816239992
  0.1126214643386703  0.8876676082774586  0.8828772368135310
  0.2203826256454791  0.7787862712703904  0.6312517693376078
  0.7862485751477060  0.8927986121295105  0.3741224509693160
  0.8915680282623158  0.7782762065740616  0.1328226974887714
  0.4414325509213740  0.8900962590126053  0.8801220404895833
  0.5628799441585399  0.8011123734109988  0.5793009664961457
 
             NaN             NaN             NaN
             NaN             NaN             NaN
             NaN             NaN             NaN
             NaN             NaN             NaN
             NaN             NaN             NaN
             NaN             NaN             NaN
             NaN             NaN             NaN
             NaN             NaN             NaN
             NaN             NaN             NaN
             NaN             NaN             NaN
             NaN             NaN             NaN
             NaN             NaN             NaN
             NaN             NaN             NaN
             NaN             NaN             NaN
             NaN             NaN             NaN
             NaN             NaN             NaN
             NaN             NaN             NaN
             NaN             NaN             NaN
             NaN             NaN             NaN
             NaN             NaN             NaN
             NaN             NaN             NaN
             NaN             NaN             NaN
             NaN             NaN             NaN
             NaN             NaN             NaN
             NaN             NaN             NaN
             NaN             NaN             NaN
             NaN             NaN             NaN
             NaN             NaN             NaN
             NaN             NaN             NaN
             NaN             NaN             NaN
             NaN             NaN             NaN
             NaN             NaN             NaN
             NaN             NaN             NaN
             NaN             NaN             NaN
             NaN             NaN             NaN
             NaN             NaN             NaN
             NaN             NaN             NaN
             NaN             NaN             NaN
             NaN             NaN             NaN
             NaN             NaN             NaN
             NaN             NaN             NaN
             NaN             NaN             NaN
             NaN             NaN             NaN
             NaN             NaN             NaN
             NaN             NaN             NaN
             NaN             NaN             NaN
             NaN             NaN             NaN
             NaN             NaN             NaN
             NaN             NaN             NaN
             NaN             NaN             NaN
             NaN             NaN             NaN
             NaN             NaN             NaN
             NaN             NaN             NaN
             NaN             NaN             NaN
             NaN             NaN             NaN
             NaN             NaN             NaN
             NaN             NaN             NaN
             NaN             NaN             NaN
             NaN             NaN             NaN
             NaN             NaN             NaN
             NaN             NaN             NaN
             NaN             NaN             NaN
             NaN             NaN             NaN
             NaN             NaN             NaN
             NaN             NaN             NaN
             NaN             NaN             NaN
             NaN             NaN             NaN
             NaN             NaN             NaN
             NaN             NaN             NaN
             NaN             NaN             NaN
             NaN             NaN             NaN
             NaN             NaN             NaN
