Al   Hf   N                             
   1.00000000000000     
     9.5593210730375127   -0.0086753049526846    0.0241482217215668
    -4.8077234084920271    8.2534847157979918   -0.0227072227448083
     0.0731091377324515   -0.0549191394133846   10.2111027311542504
   Al   Hf   N 
    34     2    36
Direct
  0.2224147976396921  0.1038578075497413  0.3226212838897446
  0.1153859442732764  0.2273438294639603  0.1350001536573299
  0.8845617083950137  0.1132494824291888  0.8277425860516592
  0.7778548803321090  0.2226586780697150  0.5726045892371576
  0.5559865696168033  0.1082308088162195  0.3191780923313092
  0.4456228888080404  0.2245126232884460  0.0737783336909574
  0.2258622626813584  0.1075741347357858  0.8260262766035396
  0.1098669591098680  0.2234469919532292  0.6405207637292791
  0.8847659833384741  0.1143412784513952  0.3201135497138348
  0.7774505890955691  0.2234522155331258  0.0697879383097018
  0.5558356404695578  0.1088875762495549  0.8224737373031470
  0.4430406020951363  0.2107147461441209  0.5769732378598764
  0.2113485955430506  0.4395836938608024  0.3861699234220097
  0.1068929378879303  0.5590659065296701  0.0700696075508193
  0.8920180987138911  0.4448758262112327  0.8225255606599754
  0.7906923816402417  0.5580072257904227  0.5769605248208540
  0.4368325711847929  0.5634405244800823  0.1360021264329958
  0.2265974897113052  0.4417706028050915  0.8897331304928996
  0.1018761866627678  0.5602056691457362  0.5693101977290177
  0.8929541966141913  0.4449215926661068  0.3193692315257524
  0.7768540892706043  0.5553892467611098  0.0735751455507933
  0.5643460827407117  0.4372499768768117  0.8289249435663330
  0.2225835406940999  0.7775950077689268  0.3197408675168834
  0.1128245960265310  0.8885751677112800  0.0702285765753160
  0.8930883365945145  0.7762170895637696  0.8263392632450060
  0.7794110143709190  0.8913794033152344  0.6297273326734025
  0.5599077849859214  0.7890388627711885  0.3845960487653755
  0.4411088898282893  0.8939751090446838  0.0703886843517293
  0.2236068320404233  0.7770927466251053  0.8203257479820444
  0.1116176891534526  0.8900650291829049  0.5710815839420273
  0.8969958757545563  0.7793628387618449  0.3220111401332708
  0.7755480655030220  0.8866983348262476  0.1267565970602079
  0.5585823957223097  0.7740832264306340  0.8899920458638795
  0.4397811143310901  0.8990754595363071  0.5690511513998531
  0.5497247130962010  0.4522023160506685  0.3552400828487531
  0.4494961680386252  0.5511560841548040  0.6119649512694396
  0.1132772510433086  0.2254349402397694  0.3283104459345073
  0.2261838900278930  0.1071676382160437  0.1307754580174114
  0.7765213529637941  0.2240460761554367  0.8823062419206924
  0.8853571817314266  0.1146243436757125  0.6306450990452431
  0.4353745194448440  0.1978932123627118  0.3890059161037768
  0.5569778012770709  0.1137514297237329  0.1311962949226623
  0.1138213841141117  0.2254276522583507  0.8346391729750179
  0.2247887764176144  0.1071884137917663  0.6348275523329177
  0.7770106692724238  0.2236541469163104  0.3820225331113425
  0.8863231283185147  0.1151976285963968  0.1241667828007503
  0.4450050875558439  0.2191107242780731  0.8861049230895937
  0.5574576334891023  0.1095347796723552  0.6353572914266153
  0.1055583230416413  0.5609356947004462  0.3795457872408391
  0.2221770243214420  0.4425276301048000  0.0771362610204664
  0.7824464957137816  0.5562687267288547  0.8858885390621541
  0.8915366033512879  0.4432747861975522  0.6354291143473316
  0.4196259091263072  0.5798832442453016  0.3203217326154059
  0.5546511913500383  0.4470224794201740  0.1311087126303113
  0.1109274161423657  0.5589701484955018  0.8799558876158483
  0.1982404104592169  0.4320146680707861  0.5756579685051654
  0.8039090813357074  0.5662302859843563  0.3889968450672418
  0.8875144299646504  0.4440513912150020  0.1312472717301896
  0.4470933725684484  0.5535822385275692  0.8321361765774877
  0.5789366409249077  0.4227031875824584  0.6413864682503021
  0.1115782335716062  0.8893477978707652  0.3830091247760034
  0.2221812895360483  0.7781488605989850  0.1312968138628858
  0.7772909018790042  0.8872810833831771  0.8430017107316828
  0.8941061964301180  0.7770527500885365  0.6348290124143693
  0.4392887908246913  0.8954703676861925  0.3791594038474405
  0.5566620419450413  0.7783263810710259  0.0782893497351292
  0.1131011840350301  0.8881012163309797  0.8827714339573673
  0.2215059125692455  0.7789332360257710  0.6309922695738395
  0.7761236874394948  0.8875589131161298  0.3319622347310089
  0.8941885710235055  0.7753233709031189  0.1304949867265786
  0.4416442900550179  0.8900144896014563  0.8800783065482486
  0.5670986360316081  0.8021387327176189  0.5754467661237180
 
             NaN             NaN             NaN
             NaN             NaN             NaN
             NaN             NaN             NaN
             NaN             NaN             NaN
             NaN             NaN             NaN
             NaN             NaN             NaN
             NaN             NaN             NaN
             NaN             NaN             NaN
             NaN             NaN             NaN
             NaN             NaN             NaN
             NaN             NaN             NaN
             NaN             NaN             NaN
             NaN             NaN             NaN
             NaN             NaN             NaN
             NaN             NaN             NaN
             NaN             NaN             NaN
             NaN             NaN             NaN
             NaN             NaN             NaN
             NaN             NaN             NaN
             NaN             NaN             NaN
             NaN             NaN             NaN
             NaN             NaN             NaN
             NaN             NaN             NaN
             NaN             NaN             NaN
             NaN             NaN             NaN
             NaN             NaN             NaN
             NaN             NaN             NaN
             NaN             NaN             NaN
             NaN             NaN             NaN
             NaN             NaN             NaN
             NaN             NaN             NaN
             NaN             NaN             NaN
             NaN             NaN             NaN
             NaN             NaN             NaN
             NaN             NaN             NaN
             NaN             NaN             NaN
             NaN             NaN             NaN
             NaN             NaN             NaN
             NaN             NaN             NaN
             NaN             NaN             NaN
             NaN             NaN             NaN
             NaN             NaN             NaN
             NaN             NaN             NaN
             NaN             NaN             NaN
             NaN             NaN             NaN
             NaN             NaN             NaN
             NaN             NaN             NaN
             NaN             NaN             NaN
             NaN             NaN             NaN
             NaN             NaN             NaN
             NaN             NaN             NaN
             NaN             NaN             NaN
             NaN             NaN             NaN
             NaN             NaN             NaN
             NaN             NaN             NaN
             NaN             NaN             NaN
             NaN             NaN             NaN
             NaN             NaN             NaN
             NaN             NaN             NaN
             NaN             NaN             NaN
             NaN             NaN             NaN
             NaN             NaN             NaN
             NaN             NaN             NaN
             NaN             NaN             NaN
             NaN             NaN             NaN
             NaN             NaN             NaN
             NaN             NaN             NaN
             NaN             NaN             NaN
             NaN             NaN             NaN
             NaN             NaN             NaN
             NaN             NaN             NaN
             NaN             NaN             NaN
