Al   Hf   N                             
   1.00000000000000     
     9.5240633362783900   -0.0115374622337855    0.0156485106084423
    -4.7527755058121048    8.2534247250063792   -0.0155083209080398
     0.0884515436163202   -0.0513961217744152   10.2941518825806373
   Al   Hf   N 
    34     2    36
Direct
  0.2213121946200537  0.1042051639985076  0.3195494514075546
  0.1088353984778591  0.2253569389388172  0.1373175476916627
  0.8918586213873679  0.1091552595958878  0.8884812834618810
  0.7782756390187523  0.2227390886626062  0.6038561110176570
  0.5589635178526692  0.1128006379785831  0.3147221926168872
  0.4434035872773040  0.2243010417587058  0.0699734756308136
  0.2241592811723947  0.1088723340834950  0.8205765118277243
  0.1052371740608894  0.2227633154513278  0.6378899233435226
  0.8894075790279544  0.1116066319309307  0.3877652683247355
  0.7769033868592189  0.2241110696806349  0.0817123761436814
  0.5555428581041182  0.1128764113057864  0.8265002766863220
  0.4431119834614927  0.2081165537018146  0.5737114163339727
  0.2076467254123622  0.4428781836109581  0.3825613053658073
  0.1168085375775745  0.5609857970404607  0.1341249188326796
  0.8881384594146194  0.4454720254965093  0.8265003736570217
  0.7928971261720392  0.5579019325714626  0.5737114055797206
  0.4386715632944979  0.5623425284129622  0.1329906196988465
  0.2248684803163361  0.4446712783915988  0.8866307523529505
  0.1154345633196273  0.5614629999576125  0.6414675116567468
  0.8882140273356559  0.4420510562462684  0.3147221976307695
  0.7767126601981759  0.5576102199116251  0.0699735048505327
  0.5625845083897631  0.4384295787751972  0.8240949442838000
  0.2252544754158730  0.7757599577630085  0.3862589215113705
  0.1078738404440793  0.8931399811343219  0.0686913320429704
  0.8921413907676830  0.7768545437810920  0.8205764617539910
  0.7782506696294845  0.8957769495418335  0.6378898994086316
  0.5581358092777313  0.7933673350976004  0.3825613764849579
  0.4400284643434288  0.8842055399316077  0.1341250032675720
  0.2255053815806130  0.7755089137303813  0.8901138842068758
  0.1080799606879087  0.8929338620393253  0.5688510506250595
  0.8968090546621242  0.7797020808713592  0.3195494471932962
  0.7756570356888003  0.8921785884932010  0.1373175786287561
  0.5563425410730740  0.7761453739521625  0.8866307124976196
  0.4395511809979912  0.8855793907161168  0.6414676476163904
  0.5512516064370948  0.4497625760647685  0.3522385843459928
  0.4508669952063395  0.5501468155591465  0.6035712650268658
  0.1075776114572964  0.2248752302513010  0.3249953338987209
  0.2255282662885481  0.1089166632923626  0.1309222686165340
  0.7774345843441898  0.2235802269575764  0.8698235948894598
  0.8919006083110269  0.1091133806155689  0.5768954815272473
  0.4335372530717772  0.1947623951181167  0.3879199005144745
  0.5551574450282113  0.1154889477230323  0.1235378677391140
  0.1085336149363945  0.2264151650944080  0.8263497836752083
  0.2250279193617396  0.1083146914111186  0.6328511677392255
  0.7777223178409192  0.2232924789459557  0.3581943919266204
  0.8927606556052432  0.1082532195035290  0.0754187024492777
  0.4416168999834570  0.2204149969081804  0.8842842475847620
  0.5567579471838334  0.1107068100835424  0.6370354928289320
  0.1137828370591512  0.5615892915599068  0.3214869681087281
  0.2203830478051770  0.4431800952212701  0.0730420746480937
  0.7805990064311272  0.5593971510286865  0.8842842954693055
  0.8903070884022035  0.4442563498227070  0.6370355405317860
  0.4227067497559072  0.5783073406107998  0.3198696683184465
  0.5548123674684136  0.4462015357317723  0.1293240157636864
  0.1198586144815327  0.5601644808851906  0.8301321716553152
  0.1953883874182446  0.4342139814444803  0.5688401178679079
  0.8062519033788100  0.5674770445448215  0.3879198665794328
  0.8855252355963539  0.4458568735143451  0.1235378522736290
  0.4466001997798750  0.5544135246846776  0.8272991406331648
  0.5792961503736661  0.4217176447334848  0.6378817656249772
  0.1080316277573463  0.8929827561852833  0.3819947294477188
  0.2242324927977049  0.7767817745711244  0.0761219236309230
  0.7745984862331233  0.8924801635937557  0.8263497577695895
  0.8926992739680534  0.7759861787098100  0.6328511302148440
  0.4394252642234108  0.8872318940026017  0.3214870215284406
  0.5578338987712023  0.7806308981359908  0.0730420475030874
  0.1082113602469255  0.8928025252793569  0.8810399805616165
  0.2251625852437050  0.7758514995101338  0.5762587630489271
  0.7761386919529385  0.8934364279722317  0.3249953624283574
  0.8920972601154018  0.7754857402456005  0.1309222946494422
  0.4408499978305239  0.8811560812635010  0.8301322677744377
  0.5667998724231689  0.8056253647402279  0.5688401614748044
 
             NaN             NaN             NaN
             NaN             NaN             NaN
             NaN             NaN             NaN
             NaN             NaN             NaN
             NaN             NaN             NaN
             NaN             NaN             NaN
             NaN             NaN             NaN
             NaN             NaN             NaN
             NaN             NaN             NaN
             NaN             NaN             NaN
             NaN             NaN             NaN
             NaN             NaN             NaN
             NaN             NaN             NaN
             NaN             NaN             NaN
             NaN             NaN             NaN
             NaN             NaN             NaN
             NaN             NaN             NaN
             NaN             NaN             NaN
             NaN             NaN             NaN
             NaN             NaN             NaN
             NaN             NaN             NaN
             NaN             NaN             NaN
             NaN             NaN             NaN
             NaN             NaN             NaN
             NaN             NaN             NaN
             NaN             NaN             NaN
             NaN             NaN             NaN
             NaN             NaN             NaN
             NaN             NaN             NaN
             NaN             NaN             NaN
             NaN             NaN             NaN
             NaN             NaN             NaN
             NaN             NaN             NaN
             NaN             NaN             NaN
             NaN             NaN             NaN
             NaN             NaN             NaN
             NaN             NaN             NaN
             NaN             NaN             NaN
             NaN             NaN             NaN
             NaN             NaN             NaN
             NaN             NaN             NaN
             NaN             NaN             NaN
             NaN             NaN             NaN
             NaN             NaN             NaN
             NaN             NaN             NaN
             NaN             NaN             NaN
             NaN             NaN             NaN
             NaN             NaN             NaN
             NaN             NaN             NaN
             NaN             NaN             NaN
             NaN             NaN             NaN
             NaN             NaN             NaN
             NaN             NaN             NaN
             NaN             NaN             NaN
             NaN             NaN             NaN
             NaN             NaN             NaN
             NaN             NaN             NaN
             NaN             NaN             NaN
             NaN             NaN             NaN
             NaN             NaN             NaN
             NaN             NaN             NaN
             NaN             NaN             NaN
             NaN             NaN             NaN
             NaN             NaN             NaN
             NaN             NaN             NaN
             NaN             NaN             NaN
             NaN             NaN             NaN
             NaN             NaN             NaN
             NaN             NaN             NaN
             NaN             NaN             NaN
             NaN             NaN             NaN
             NaN             NaN             NaN
