Al   Hf   N                             
   1.00000000000000     
     9.5245777192728198   -0.0146357862637928    0.0130660182541567
    -4.7479871863222414    8.2567819044037023   -0.0127368309729303
     0.0935126278300600   -0.0547044075997484   10.2934176498661554
   Al   Hf   N 
    34     2    36
Direct
  0.2228482689452974  0.1055298311634498  0.3199816956513526
  0.1089614337907226  0.2244073041481856  0.1372702092874364
  0.8932258755279617  0.1081770232311385  0.8891433669231515
  0.7758385135942563  0.2255644534632427  0.5715775016706545
  0.5616089258037641  0.1157700871799726  0.3164086518004416
  0.4447244118235449  0.2251659786890904  0.0712307071749422
  0.2254688257674769  0.1092398784552046  0.8205239694642259
  0.1042874354242928  0.2215689674854444  0.6382618929726006
  0.8930168631732516  0.1083861332045216  0.3889762835645486
  0.7755927811508158  0.2258098404141972  0.0677322823817411
  0.5611521073007796  0.1172144142996854  0.8237837950829658
  0.4429372877860147  0.2079474574353271  0.5752690397359277
  0.2081996499745554  0.4434129404550018  0.3841547375914677
  0.1127436883369422  0.5554971809487566  0.1311849148179827
  0.8841888982727100  0.4402512787993171  0.8237836965653180
  0.7934552181208401  0.5584654100696004  0.5752689799962499
  0.4385145773839357  0.5628884827583002  0.1337952150378519
  0.2244149657785644  0.4436862844152232  0.8879402386990828
  0.1126612358382921  0.5588879466230441  0.6430916127836143
  0.8856328572337160  0.4397942028132277  0.3164084379208291
  0.7762363840228109  0.5566779332230383  0.0712306885593012
  0.5624117615041034  0.4389909885775911  0.8248269688113942
  0.2224853126019666  0.7789188281340707  0.3490703009673170
  0.1094470847310912  0.8919551928321743  0.0693422394444246
  0.8921627128676048  0.7759337107930490  0.8205239537760946
  0.7798346750737057  0.8971161210330754  0.6382617953507160
  0.5579900496659307  0.7932030831716416  0.3841547492373023
  0.4459063519289425  0.8886596991269176  0.1311847795763848
  0.2238322415364122  0.7775719469498752  0.8716335794436336
  0.1119025709905022  0.8895001420891233  0.5700904626740786
  0.8958727698990143  0.7785540910314686  0.3199815767665237
  0.7769954781099473  0.8924412331278005  0.1372702213363601
  0.5577165036444144  0.7769876566517810  0.8879401204911496
  0.4425156263751230  0.8887423540369520  0.6430913334558714
  0.5502516712958385  0.4511504192065315  0.3542505116515333
  0.4498503105180355  0.5515533212826146  0.6055572674422235
  0.1083941262846120  0.2252842723392221  0.3250237986193943
  0.2264747436972396  0.1088010312840111  0.1314573645328353
  0.7768695641135659  0.2245343680620027  0.8817171824060451
  0.8930632474570630  0.1083395662248380  0.5758592015992013
  0.4342903543002687  0.1957181509239435  0.3889768202702832
  0.5603031218214788  0.1202278724355336  0.1276927605884871
  0.1089892009020365  0.2258235956324023  0.8269319056189831
  0.2249452078326720  0.1078624843983464  0.6328196911162168
  0.7759304529996226  0.2254732342857779  0.3815861131711107
  0.8928887247746923  0.1085132937010022  0.0768098615660029
  0.4432514507372604  0.2207273281547736  0.8847885506470975
  0.5617308197814579  0.1141661970239429  0.6363790693030739
  0.1105566424236429  0.5566645634094701  0.3210303593596600
  0.2205531368090036  0.4418684527351386  0.0735889396029710
  0.7806758772605187  0.5581517964041032  0.8847886009477562
  0.8872372065533651  0.4396727699626444  0.6363790332492961
  0.4218062196824329  0.5795960396627191  0.3200101581157209
  0.5545055008110851  0.4468975516693452  0.1305368009059369
  0.1152850193560745  0.5550188365777180  0.8346386754454603
  0.1948689306560301  0.4337859808966581  0.5699332181167190
  0.8056844197835881  0.5671125053739446  0.3889766509303221
  0.8811751601085751  0.4411000862135949  0.1276926661079131
  0.4462584677805795  0.5551435422940999  0.8285007854264392
  0.5783971942118782  0.4230061751186605  0.6379451987954617
  0.1093811026261566  0.8920221171927785  0.3810406945848506
  0.2233566505060671  0.7780464366215387  0.0914242367988746
  0.7755786237815089  0.8924129349459505  0.8269318157308286
  0.8935409778503907  0.7764581632947193  0.6328196844080387
  0.4447391260683490  0.8908467018829795  0.3210302122101634
  0.5595338689459346  0.7808491172688653  0.0735888754675541
  0.1083718482897743  0.8930314687322776  0.8825119101424070
  0.2230358368535069  0.7783672740611109  0.6034670004572414
  0.7761180796655966  0.8930080665888043  0.3250237907643289
  0.8926020178404152  0.7749282293315343  0.1314572736502404
  0.4463849445406208  0.8861187515711099  0.8346386170966319
  0.5676170571509801  0.8065341901920510  0.5699330687681345
 
             NaN             NaN             NaN
             NaN             NaN             NaN
             NaN             NaN             NaN
             NaN             NaN             NaN
             NaN             NaN             NaN
             NaN             NaN             NaN
             NaN             NaN             NaN
             NaN             NaN             NaN
             NaN             NaN             NaN
             NaN             NaN             NaN
             NaN             NaN             NaN
             NaN             NaN             NaN
             NaN             NaN             NaN
             NaN             NaN             NaN
             NaN             NaN             NaN
             NaN             NaN             NaN
             NaN             NaN             NaN
             NaN             NaN             NaN
             NaN             NaN             NaN
             NaN             NaN             NaN
             NaN             NaN             NaN
             NaN             NaN             NaN
             NaN             NaN             NaN
             NaN             NaN             NaN
             NaN             NaN             NaN
             NaN             NaN             NaN
             NaN             NaN             NaN
             NaN             NaN             NaN
             NaN             NaN             NaN
             NaN             NaN             NaN
             NaN             NaN             NaN
             NaN             NaN             NaN
             NaN             NaN             NaN
             NaN             NaN             NaN
             NaN             NaN             NaN
             NaN             NaN             NaN
             NaN             NaN             NaN
             NaN             NaN             NaN
             NaN             NaN             NaN
             NaN             NaN             NaN
             NaN             NaN             NaN
             NaN             NaN             NaN
             NaN             NaN             NaN
             NaN             NaN             NaN
             NaN             NaN             NaN
             NaN             NaN             NaN
             NaN             NaN             NaN
             NaN             NaN             NaN
             NaN             NaN             NaN
             NaN             NaN             NaN
             NaN             NaN             NaN
             NaN             NaN             NaN
             NaN             NaN             NaN
             NaN             NaN             NaN
             NaN             NaN             NaN
             NaN             NaN             NaN
             NaN             NaN             NaN
             NaN             NaN             NaN
             NaN             NaN             NaN
             NaN             NaN             NaN
             NaN             NaN             NaN
             NaN             NaN             NaN
             NaN             NaN             NaN
             NaN             NaN             NaN
             NaN             NaN             NaN
             NaN             NaN             NaN
             NaN             NaN             NaN
             NaN             NaN             NaN
             NaN             NaN             NaN
             NaN             NaN             NaN
             NaN             NaN             NaN
             NaN             NaN             NaN
