Al   Hf   N                             
   1.00000000000000     
     9.5028353229568232   -0.0075829381777387    0.0232661712734648
    -4.7586402710667546    8.2255252600757345   -0.0237617924480625
     0.0257470657024187   -0.0142483119780336   10.0884810100615603
   Al   Hf   N 
    34     2    36
Direct
  0.2195462844160474  0.1102237157432313  0.4131110266345033
  0.1097205392723453  0.2216129817049435  0.1595843543805486
  0.8887753114032506  0.1119707744527219  0.9105475767345013
  0.7776957108745108  0.2230502068520224  0.6596631479895692
  0.5538494793835085  0.1069576839012569  0.4118552965838589
  0.4404238391054918  0.2146113219304766  0.1569630447799781
  0.2202393947882513  0.1098075608484308  0.9116590906816811
  0.1058101672437459  0.2188276736882102  0.6602315578801310
  0.8884431096792156  0.1123029848111514  0.4098191544094263
  0.7780197946794587  0.2227260158828628  0.1617159483589958
  0.5572240190434883  0.1096485404628069  0.9125411837205348
  0.4448652830310920  0.2116376794518473  0.6692604642479836
  0.2152388582128069  0.4424759593350558  0.4059809812566613
  0.1107841182030143  0.5562546663159225  0.1612818866510608
  0.8910972520016855  0.4435217852898319  0.9125411908462837
  0.7891084452424906  0.5558807694757135  0.6692604822857149
  0.4396821575082370  0.5610639783771134  0.1495973606432202
  0.2194144772733608  0.4427743857414725  0.9112758319438541
  0.1072571406371949  0.5573737915578576  0.6620805597260500
  0.8937883702724037  0.4468966904318137  0.4118552956431785
  0.7861345460517484  0.5603221192429615  0.1569630250401914
  0.5583192257874927  0.4424267305066536  0.9160011021502683
  0.2220761760373620  0.7786697892438994  0.4095482979229033
  0.1107408836189876  0.8900048656166817  0.1634865556303993
  0.8909383815293950  0.7805067095845999  0.9116590371536546
  0.7819185910580089  0.8949362008954296  0.6602315533430740
  0.5582699739513686  0.7855070874040138  0.4059810225992990
  0.4444910628994805  0.8899616421686218  0.1612819150984777
  0.2222552239052646  0.7784905752863338  0.9124023036053543
  0.1114245320458664  0.8893214225384085  0.6620886435649354
  0.8905221464970197  0.7811997824176018  0.4131110463330074
  0.7791329440727353  0.8910254375656734  0.1595843485248523
  0.5579716443247733  0.7813316932761012  0.9112757696393174
  0.4433720636840448  0.8934888367417813  0.6620805390310736
  0.5513129751865478  0.4494329589461898  0.4028932897232167
  0.4487682053020592  0.5519780936250314  0.6434750493103181
  0.1090594972435071  0.2204796444123431  0.3495112238110067
  0.2193978206688101  0.1100382485913443  0.1008177198381546
  0.7783378001469075  0.2224081213533324  0.8509360711107874
  0.8888457596358919  0.1119005987208723  0.6003470147548313
  0.4323814813110189  0.1988712118561224  0.3450947935187543
  0.5575132279583741  0.1107299476907144  0.1012130069994228
  0.1108516785629376  0.2217457545365278  0.8507914827703900
  0.2231652983323471  0.1119295676749061  0.6054457198014660
  0.7771391516830093  0.2236070117970641  0.3531289544692342
  0.8885726319928011  0.1121733964838825  0.1007796079695211
  0.4435745207486903  0.2185261597282278  0.8597722845711147
  0.5555510708343832  0.1088032527139404  0.6023628217786907
  0.1098957365050879  0.5568353960784833  0.3503505084339409
  0.2168716730242295  0.4421666911327478  0.0989867651395002
  0.7822199110312482  0.5571715783231852  0.8597723043100274
  0.8919427878875723  0.4451949208436758  0.6023628238628120
  0.4269422720894980  0.5738037911433977  0.3346951891012253
  0.5562091842139480  0.4445367963404152  0.1121593945576365
  0.1125057331980130  0.5569411401578890  0.8522687307815531
  0.1971723795543667  0.4351986590498740  0.5971062598378936
  0.8018748150734467  0.5683646774765663  0.3450947816301309
  0.8900158950163330  0.4432326426790638  0.1012130127651929
  0.4466482091531248  0.5540979560267800  0.8646061949207464
  0.5773028623955838  0.4234433317952764  0.6199751502926958
  0.1104812525441830  0.8902647179808270  0.3542557054067217
  0.2219512016986656  0.7787945996350913  0.1029108195191739
  0.7790003532697298  0.8898945476770450  0.8507914546160507
  0.8888164713206521  0.7775808438525829  0.6054457456268239
  0.4439106531811490  0.8908503139365820  0.3503505401943556
  0.5585793116052429  0.7838744110374947  0.0989867039999766
  0.1119652892953411  0.8887807378893484  0.8522170842013352
  0.2221862917161062  0.7785596365238021  0.6020185140856569
  0.7802663408393613  0.8916866233669793  0.3495112180820712
  0.8907076281819286  0.7813481663516981  0.1008176731465014
  0.4438047331489159  0.8882402096427811  0.8522686959939847
  0.5655475596981461  0.8035739423486916  0.5971062987451958
 
             NaN             NaN             NaN
             NaN             NaN             NaN
             NaN             NaN             NaN
             NaN             NaN             NaN
             NaN             NaN             NaN
             NaN             NaN             NaN
             NaN             NaN             NaN
             NaN             NaN             NaN
             NaN             NaN             NaN
             NaN             NaN             NaN
             NaN             NaN             NaN
             NaN             NaN             NaN
             NaN             NaN             NaN
             NaN             NaN             NaN
             NaN             NaN             NaN
             NaN             NaN             NaN
             NaN             NaN             NaN
             NaN             NaN             NaN
             NaN             NaN             NaN
             NaN             NaN             NaN
             NaN             NaN             NaN
             NaN             NaN             NaN
             NaN             NaN             NaN
             NaN             NaN             NaN
             NaN             NaN             NaN
             NaN             NaN             NaN
             NaN             NaN             NaN
             NaN             NaN             NaN
             NaN             NaN             NaN
             NaN             NaN             NaN
             NaN             NaN             NaN
             NaN             NaN             NaN
             NaN             NaN             NaN
             NaN             NaN             NaN
             NaN             NaN             NaN
             NaN             NaN             NaN
             NaN             NaN             NaN
             NaN             NaN             NaN
             NaN             NaN             NaN
             NaN             NaN             NaN
             NaN             NaN             NaN
             NaN             NaN             NaN
             NaN             NaN             NaN
             NaN             NaN             NaN
             NaN             NaN             NaN
             NaN             NaN             NaN
             NaN             NaN             NaN
             NaN             NaN             NaN
             NaN             NaN             NaN
             NaN             NaN             NaN
             NaN             NaN             NaN
             NaN             NaN             NaN
             NaN             NaN             NaN
             NaN             NaN             NaN
             NaN             NaN             NaN
             NaN             NaN             NaN
             NaN             NaN             NaN
             NaN             NaN             NaN
             NaN             NaN             NaN
             NaN             NaN             NaN
             NaN             NaN             NaN
             NaN             NaN             NaN
             NaN             NaN             NaN
             NaN             NaN             NaN
             NaN             NaN             NaN
             NaN             NaN             NaN
             NaN             NaN             NaN
             NaN             NaN             NaN
             NaN             NaN             NaN
             NaN             NaN             NaN
             NaN             NaN             NaN
             NaN             NaN             NaN
