Al   Hf   N                             
   1.00000000000000     
     9.5268679809216135   -0.0075440989808580    0.0198421808637885
    -4.7515623381993466    8.2573562108008733   -0.0196778853435298
     0.0887192548647215   -0.0515566955086866   10.2934382341191064
   Al   Hf   N 
    34     2    36
Direct
  0.2210216825734217  0.1042043514553133  0.3195608254837662
  0.1092776419269546  0.2254637376726067  0.1370652354950297
  0.8906867983013101  0.1103269129164827  0.8886119602227636
  0.7800583831994022  0.2209558293837303  0.6300885442535219
  0.5562411504163619  0.1113217619523321  0.3149782285424416
  0.4434608646318868  0.2243707290905244  0.0695982554879609
  0.2238614540326917  0.1088981307094273  0.8204519945106762
  0.1050085204082505  0.2226900090201734  0.6376155334072894
  0.8885932015254630  0.1124210928777756  0.3879272343067428
  0.7790516842961465  0.2219632175122813  0.1101746905425532
  0.5534994465799503  0.1116346046275259  0.8268915497303388
  0.4431800183737487  0.2080578391866322  0.5736636310052228
  0.2078140914167729  0.4428061272305699  0.3825867658975773
  0.1172153063363111  0.5613003759533589  0.1336919840683512
  0.8893798316173465  0.4475149267194440  0.8268916168342139
  0.7929558352328933  0.5578338718032111  0.5736636403266280
  0.4387470368622441  0.5622670802115861  0.1328781261664155
  0.2248050490428338  0.4445118435544633  0.8864992596096464
  0.1154557245046042  0.5616757487051208  0.6410703074940566
  0.8896932506957740  0.4447739333392827  0.3149783279273093
  0.7766429936150024  0.5575530520099130  0.0695982824306713
  0.5625926345611159  0.4384213774397928  0.8238993403304155
  0.2252479122983436  0.7757666092762528  0.3863895911509628
  0.1078917841932092  0.8931221060398903  0.0686128536833027
  0.8921156098915617  0.7771523547686177  0.8204519492976893
  0.7783239407741965  0.8960055661745449  0.6376155134689274
  0.5582078630329630  0.7931999971485481  0.3825868136750372
  0.4397140509314778  0.8837989586284420  0.1336920734930910
  0.2255193585976221  0.7754947945597886  0.8900146646244187
  0.1080772635706570  0.8929366470267945  0.5688938114372638
  0.8968099654570327  0.7799927617496253  0.3195608588330262
  0.7755501885965154  0.8917363514809442  0.1370652798462687
  0.5565018989353374  0.7762087232273555  0.8864992412383157
  0.4393382926238243  0.8855580442624780  0.6410704383263927
  0.5510933586429150  0.4499209024390327  0.3522874494581705
  0.4508300130010546  0.5501837565432317  0.6037819255943458
  0.1073868217384881  0.2248127004483702  0.3249600936518546
  0.2254581496865858  0.1088885119556321  0.1308120065742135
  0.7793092552474911  0.2217050689638085  0.8486183651537720
  0.8907631368697585  0.1102509985238063  0.5761101970624812
  0.4333506600070895  0.1949808230764513  0.3878355149819128
  0.5532470802966242  0.1141772498610261  0.1218185858644393
  0.1083311603400983  0.2262566240992109  0.8264725151384742
  0.2247574293668792  0.1083566791160163  0.6326356565574435
  0.7796451026910894  0.2213698725274532  0.3371687482906864
  0.8922407524869648  0.1087732760501815  0.0747241430884247
  0.4414451159701682  0.2206026847677734  0.8841301088711550
  0.5548804282223520  0.1095602196991829  0.6354266075183254
  0.1142448578645226  0.5618583044181069  0.3214103546421639
  0.2205295941757628  0.4431541707071559  0.0730208163985811
  0.7804112164573029  0.5595687802019190  0.8841301296195672
  0.8914536218759480  0.4461337037247750  0.6354266711761382
  0.4226454291263378  0.5783687696589642  0.3196688132405231
  0.5549204240618036  0.4460933737224388  0.1292675011721706
  0.1202535555451407  0.5604229926152352  0.8301088687498462
  0.1956784185040459  0.4342666644221938  0.5688571511145892
  0.8060334860644106  0.5676637246038648  0.3878355457448223
  0.8868372126129963  0.4477676704058096  0.1218186109208333
  0.4465975268780188  0.5544162697294206  0.8273721141075293
  0.5792496356219285  0.4217640666523188  0.6377606024980224
  0.1080422205773160  0.8929720998489609  0.3818741828061035
  0.2242212790698900  0.7767931511804780  0.0760641593689011
  0.7747571310940760  0.8926826451656277  0.8264724830432266
  0.8926571700210352  0.7762564957246150  0.6326356267894825
  0.4391563709577009  0.8867699560554581  0.3214104474088512
  0.5578598945401517  0.7804844030089980  0.0730207899079194
  0.1082327360970411  0.8927809952530581  0.8809491823793473
  0.2251576263470645  0.7758564281413893  0.5761309601061553
  0.7762013920955859  0.8936274367822299  0.3249601382648094
  0.8921253063351540  0.7755557615555941  0.1308120364010493
  0.4405912632727931  0.8807607452073105  0.8301089577206838
  0.5667472390475492  0.8053353354747878  0.5688571993287123
 
             NaN             NaN             NaN
             NaN             NaN             NaN
             NaN             NaN             NaN
             NaN             NaN             NaN
             NaN             NaN             NaN
             NaN             NaN             NaN
             NaN             NaN             NaN
             NaN             NaN             NaN
             NaN             NaN             NaN
             NaN             NaN             NaN
             NaN             NaN             NaN
             NaN             NaN             NaN
             NaN             NaN             NaN
             NaN             NaN             NaN
             NaN             NaN             NaN
             NaN             NaN             NaN
             NaN             NaN             NaN
             NaN             NaN             NaN
             NaN             NaN             NaN
             NaN             NaN             NaN
             NaN             NaN             NaN
             NaN             NaN             NaN
             NaN             NaN             NaN
             NaN             NaN             NaN
             NaN             NaN             NaN
             NaN             NaN             NaN
             NaN             NaN             NaN
             NaN             NaN             NaN
             NaN             NaN             NaN
             NaN             NaN             NaN
             NaN             NaN             NaN
             NaN             NaN             NaN
             NaN             NaN             NaN
             NaN             NaN             NaN
             NaN             NaN             NaN
             NaN             NaN             NaN
             NaN             NaN             NaN
             NaN             NaN             NaN
             NaN             NaN             NaN
             NaN             NaN             NaN
             NaN             NaN             NaN
             NaN             NaN             NaN
             NaN             NaN             NaN
             NaN             NaN             NaN
             NaN             NaN             NaN
             NaN             NaN             NaN
             NaN             NaN             NaN
             NaN             NaN             NaN
             NaN             NaN             NaN
             NaN             NaN             NaN
             NaN             NaN             NaN
             NaN             NaN             NaN
             NaN             NaN             NaN
             NaN             NaN             NaN
             NaN             NaN             NaN
             NaN             NaN             NaN
             NaN             NaN             NaN
             NaN             NaN             NaN
             NaN             NaN             NaN
             NaN             NaN             NaN
             NaN             NaN             NaN
             NaN             NaN             NaN
             NaN             NaN             NaN
             NaN             NaN             NaN
             NaN             NaN             NaN
             NaN             NaN             NaN
             NaN             NaN             NaN
             NaN             NaN             NaN
             NaN             NaN             NaN
             NaN             NaN             NaN
             NaN             NaN             NaN
             NaN             NaN             NaN
