Al   Hf   N                             
   1.00000000000000     
     9.5266605579881460   -0.0080765474145817    0.0192830248297423
    -4.7517968608531769    8.2569823452280033   -0.0191219434187978
     0.0888641001332207   -0.0516396773687874   10.2930273430098431
   Al   Hf   N 
    34     2    36
Direct
  0.2210653163877639  0.1042048298252197  0.3195714020350230
  0.1092356669416119  0.2254610122726340  0.1371353849585498
  0.8908565705189931  0.1101571541591659  0.8885496388565314
  0.7798677175962684  0.2211465414249772  0.6271567192328860
  0.5567282696811860  0.1115717109479337  0.3149355750330269
  0.4434085163788563  0.2243730676817108  0.0696306211173500
  0.2239042725319874  0.1088942642271319  0.8204715142944768
  0.1050795961151524  0.2227095024970528  0.6376563392065456
  0.8886386713467116  0.1123756047774099  0.3878867108100884
  0.7787465624710500  0.2222683057045260  0.1060570652878183
  0.5537385923362989  0.1117841187768531  0.8268782785167318
  0.4431689148826470  0.2080765889783136  0.5736398928679497
  0.2077662689131216  0.4428074374194584  0.3825766291766190
  0.1171906366893152  0.5612849591364343  0.1337643560327494
  0.8892303959311487  0.4472758826039011  0.8268783472070459
  0.7929370806769126  0.5578449787290329  0.5736398961618883
  0.4387344500607688  0.5622796669684046  0.1329042492564012
  0.2248140680279410  0.4445338753312695  0.8865131491667413
  0.1154822087147653  0.5616646037592113  0.6411312177856021
  0.8894432672152341  0.4442867494156821  0.3149356737774827
  0.7766406485808629  0.5576053879008069  0.0696306502814871
  0.5625907178642098  0.4384232960282522  0.8239245925431551
  0.2252483242583967  0.7757661897364611  0.3863549525599999
  0.1078890631488180  0.8931248189492904  0.0686250386502721
  0.8921194746266555  0.7771095403245778  0.8204714726723406
  0.7783044448721014  0.8959344945392500  0.6376563179059481
  0.5582065471342825  0.7932478139692650  0.3825766802959069
  0.4397294505316391  0.8838236043734218  0.1337644404617890
  0.2255171377451021  0.7754970488808287  0.8900259531288210
  0.1080807173729716  0.8929331861297612  0.5688820110456979
  0.8968094748875967  0.7799491020735231  0.3195714334646436
  0.7755529125276573  0.8917783218102707  0.1371354267035859
  0.5564798696014002  0.7761997123378815  0.8865131305961123
  0.4393494518544839  0.8855315763322369  0.6411313541104467
  0.5511287794878246  0.4498854708687774  0.3522787753713153
  0.4508393518194240  0.5501744197154371  0.6037376940230708
  0.1074245071938715  0.2248110272350818  0.3249835777900399
  0.2254563250250665  0.1088899202664289  0.1308219284143366
  0.7790537855254314  0.2219606422528519  0.8514237692153249
  0.8909265518859205  0.1100875606297825  0.5762553251719394
  0.4333762575739391  0.1949417245837348  0.3878238208284094
  0.5533952419407205  0.1143071121958277  0.1219825240925191
  0.1083780111327290  0.2262801182823065  0.8264560952135417
  0.2247995848968344  0.1083456861881997  0.6326598238288443
  0.7793959429270075  0.2216189891640757  0.3398628519029684
  0.8923529818582567  0.1086610246234689  0.0747854027497346
  0.4414522436912493  0.2205823142570043  0.8841450143850835
  0.5550584047662175  0.1096800494186477  0.6356590238713647
  0.1141696419519676  0.5618241100514314  0.3214066864244878
  0.2205018408459155  0.4431541642368152  0.0730289143917015
  0.7804316056109738  0.5595616775269742  0.8841450396933191
  0.8913338187886287  0.4459557692838351  0.6356590849560805
  0.4226581959362590  0.5783559857061700  0.3197148415988309
  0.5549055876187836  0.4461082230732311  0.1292682287203496
  0.1202082176604806  0.5603961602938277  0.8301133673002045
  0.1956310308099359  0.4342555117407214  0.5688606017170397
  0.8060725851248205  0.5676381124084118  0.3878238424499139
  0.8867073256829058  0.4476194640864538  0.1219825553319959
  0.4465975523115157  0.5544162326753185  0.8273639642902998
  0.5792637353773543  0.4217499801759452  0.6377766521017675
  0.1080438822329946  0.8929704374976090  0.3818874859804251
  0.2242198851787983  0.7767945159672466  0.0760718688021587
  0.7747336215096318  0.8926357878567716  0.8264560619971508
  0.8926681739024945  0.7762143555500890  0.6326597943548219
  0.4391905391046894  0.8868451488599799  0.3214067761074099
  0.5578598876333070  0.7805121435460856  0.0730288877171057
  0.1082309539942072  0.8927827892788835  0.8809580209265820
  0.2251590166183178  0.7758550367009710  0.5761495771386853
  0.7762030401959819  0.8935897198218952  0.3249836211286481
  0.8921239098693524  0.7755575918707778  0.1308219558529660
  0.4406181248811007  0.8808061359671128  0.8301134636651821
  0.5667583808795837  0.8053827181707719  0.5688606491626711
 
             NaN             NaN             NaN
             NaN             NaN             NaN
             NaN             NaN             NaN
             NaN             NaN             NaN
             NaN             NaN             NaN
             NaN             NaN             NaN
             NaN             NaN             NaN
             NaN             NaN             NaN
             NaN             NaN             NaN
             NaN             NaN             NaN
             NaN             NaN             NaN
             NaN             NaN             NaN
             NaN             NaN             NaN
             NaN             NaN             NaN
             NaN             NaN             NaN
             NaN             NaN             NaN
             NaN             NaN             NaN
             NaN             NaN             NaN
             NaN             NaN             NaN
             NaN             NaN             NaN
             NaN             NaN             NaN
             NaN             NaN             NaN
             NaN             NaN             NaN
             NaN             NaN             NaN
             NaN             NaN             NaN
             NaN             NaN             NaN
             NaN             NaN             NaN
             NaN             NaN             NaN
             NaN             NaN             NaN
             NaN             NaN             NaN
             NaN             NaN             NaN
             NaN             NaN             NaN
             NaN             NaN             NaN
             NaN             NaN             NaN
             NaN             NaN             NaN
             NaN             NaN             NaN
             NaN             NaN             NaN
             NaN             NaN             NaN
             NaN             NaN             NaN
             NaN             NaN             NaN
             NaN             NaN             NaN
             NaN             NaN             NaN
             NaN             NaN             NaN
             NaN             NaN             NaN
             NaN             NaN             NaN
             NaN             NaN             NaN
             NaN             NaN             NaN
             NaN             NaN             NaN
             NaN             NaN             NaN
             NaN             NaN             NaN
             NaN             NaN             NaN
             NaN             NaN             NaN
             NaN             NaN             NaN
             NaN             NaN             NaN
             NaN             NaN             NaN
             NaN             NaN             NaN
             NaN             NaN             NaN
             NaN             NaN             NaN
             NaN             NaN             NaN
             NaN             NaN             NaN
             NaN             NaN             NaN
             NaN             NaN             NaN
             NaN             NaN             NaN
             NaN             NaN             NaN
             NaN             NaN             NaN
             NaN             NaN             NaN
             NaN             NaN             NaN
             NaN             NaN             NaN
             NaN             NaN             NaN
             NaN             NaN             NaN
             NaN             NaN             NaN
             NaN             NaN             NaN
