Al   Hf   N                             
   1.00000000000000     
     9.5276664310229435   -0.0152538902583459    0.0279991777092020
    -4.7897365321668843    8.2624568791610180   -0.0278671396317550
     0.0661097314468823   -0.0186050600473348   10.1148777755165984
   Al   Hf   N 
    34     2    36
Direct
  0.2178446071123332  0.1032458933665481  0.3170906369523010
  0.1084105852389001  0.2165462567736185  0.0681486326675156
  0.8904690666037993  0.1115190099790055  0.8160721621431932
  0.7793380488943100  0.2228278670591521  0.5700603752574267
  0.5568615601753208  0.1074462418128661  0.3166486930414010
  0.4445251563830723  0.2237389999042989  0.0694069896383027
  0.2217630134441535  0.1099003612865914  0.8200237920499305
  0.1043583197078775  0.2103772171207012  0.5663337209768287
  0.8877147207749303  0.1105562474266364  0.3151104730405763
  0.7784448756539604  0.2233066941374346  0.0667395745798629
  0.5570710284307125  0.1107814110499419  0.8193021550096873
  0.4409995011403964  0.2076112564432648  0.5739666443390590
  0.2079420042084834  0.4395605283852220  0.3798433621510000
  0.1077837954117555  0.5612012902043304  0.0671901656813674
  0.8912990656290489  0.4448918599814178  0.8190849037790215
  0.7901492139129758  0.5597570062151647  0.5737202813414584
  0.4357650119124159  0.5589953891757489  0.1312174685543468
  0.2291090829205089  0.4476220227740271  0.8813857643758780
  0.1023781744705730  0.5611901040434049  0.5671155997716042
  0.8926265307870551  0.4447989023431518  0.3150021744965841
  0.7765095891720293  0.5573511566530769  0.0690533298271347
  0.5622468079050762  0.4381363456584211  0.8227802953021026
  0.2224067441371673  0.7788780244993490  0.3174867115725561
  0.1116451255617221  0.8892991821494078  0.0675660803944211
  0.8900558668207950  0.7791747028588674  0.8205608308267571
  0.7797010856544659  0.8906971627952984  0.5655496286514037
  0.5586989518453152  0.7938220852367692  0.3141933521142235
  0.4444965124955687  0.8925425426493021  0.0664411356780477
  0.2228111829573152  0.7790433748532166  0.8173019746186583
  0.1110179758699843  0.8892181685403600  0.5686177361949447
  0.8943244992175465  0.7821413070878478  0.3181809029153371
  0.7794465387530565  0.8910567040009880  0.0664889664747719
  0.5603068145108878  0.7867432149209392  0.8201326688135637
  0.4461470277463420  0.8951508072136249  0.5672857020216071
  0.5520098671497848  0.4462247212190604  0.3517930084097856
  0.4501300506634180  0.5522631647880019  0.5975545365613826
  0.1054698874333582  0.2105941411878334  0.3721178536695788
  0.2221157709337547  0.1106261975254270  0.1275068953066310
  0.7794346047118310  0.2225831213393690  0.8767951653811039
  0.8884270091466959  0.1098457390026795  0.6263879963520438
  0.4317806656960101  0.1928656473576567  0.3842514875130618
  0.5565172282314705  0.1138678500412027  0.1269028849784277
  0.1089008245861223  0.2161017378980148  0.8757361184207184
  0.2204146822229731  0.1090279827766238  0.6303781201038774
  0.7787964542808510  0.2233199249999771  0.3771173533738192
  0.8882177447321453  0.1126379518006146  0.1260923212234601
  0.4435984957219645  0.2189767048051650  0.8802565719574602
  0.5574878289367433  0.1088662842965959  0.6305179778695233
  0.1053544143404537  0.5615053948215163  0.3741807680267826
  0.2219370496003918  0.4462201986501100  0.0770182820288525
  0.7815604145500146  0.5575061861367061  0.8799423011844354
  0.8904978563586425  0.4438043334532651  0.6310013367801020
  0.4191701056655504  0.5709527663965162  0.3243388463243875
  0.5541836698935612  0.4461665138549122  0.1259913998369413
  0.1107791615464677  0.5606924763367758  0.8751690754022761
  0.1965745379130084  0.4337483007277640  0.5763139054052857
  0.8055341015865523  0.5683066591585231  0.3839746367736296
  0.8868550339204901  0.4449990799554584  0.1258659297788256
  0.4475266891914060  0.5544211518317113  0.8266530790031084
  0.5761136020859823  0.4210135936146671  0.6332719219945844
  0.1108854360878908  0.8883352939815978  0.3783927655952724
  0.2229475850871552  0.7807933903582409  0.1274834707091443
  0.7803866048911559  0.8908307909056461  0.8778534123884469
  0.8902091997587860  0.7805117775990951  0.6303957423359918
  0.4438862079917314  0.8915775084256765  0.3776478193831352
  0.5603379716062378  0.7896023385534363  0.1223717679414946
  0.1118350868022162  0.8889355752898922  0.8780518206628898
  0.2230797564476319  0.7806645506773222  0.6264592515155911
  0.7779069857894001  0.8895049772229697  0.3742645420421837
  0.8891375429866741  0.7796129181495033  0.1276323484545756
  0.4433237755353119  0.8898761706359721  0.8782487461774267
  0.5683746210382878  0.8075128198217172  0.6306535516546887
 
             NaN             NaN             NaN
             NaN             NaN             NaN
             NaN             NaN             NaN
             NaN             NaN             NaN
             NaN             NaN             NaN
             NaN             NaN             NaN
             NaN             NaN             NaN
             NaN             NaN             NaN
             NaN             NaN             NaN
             NaN             NaN             NaN
             NaN             NaN             NaN
             NaN             NaN             NaN
             NaN             NaN             NaN
             NaN             NaN             NaN
             NaN             NaN             NaN
             NaN             NaN             NaN
             NaN             NaN             NaN
             NaN             NaN             NaN
             NaN             NaN             NaN
             NaN             NaN             NaN
             NaN             NaN             NaN
             NaN             NaN             NaN
             NaN             NaN             NaN
             NaN             NaN             NaN
             NaN             NaN             NaN
             NaN             NaN             NaN
             NaN             NaN             NaN
             NaN             NaN             NaN
             NaN             NaN             NaN
             NaN             NaN             NaN
             NaN             NaN             NaN
             NaN             NaN             NaN
             NaN             NaN             NaN
             NaN             NaN             NaN
             NaN             NaN             NaN
             NaN             NaN             NaN
             NaN             NaN             NaN
             NaN             NaN             NaN
             NaN             NaN             NaN
             NaN             NaN             NaN
             NaN             NaN             NaN
             NaN             NaN             NaN
             NaN             NaN             NaN
             NaN             NaN             NaN
             NaN             NaN             NaN
             NaN             NaN             NaN
             NaN             NaN             NaN
             NaN             NaN             NaN
             NaN             NaN             NaN
             NaN             NaN             NaN
             NaN             NaN             NaN
             NaN             NaN             NaN
             NaN             NaN             NaN
             NaN             NaN             NaN
             NaN             NaN             NaN
             NaN             NaN             NaN
             NaN             NaN             NaN
             NaN             NaN             NaN
             NaN             NaN             NaN
             NaN             NaN             NaN
             NaN             NaN             NaN
             NaN             NaN             NaN
             NaN             NaN             NaN
             NaN             NaN             NaN
             NaN             NaN             NaN
             NaN             NaN             NaN
             NaN             NaN             NaN
             NaN             NaN             NaN
             NaN             NaN             NaN
             NaN             NaN             NaN
             NaN             NaN             NaN
             NaN             NaN             NaN
