supercell of unknown system             
   1.00000000000000     
     9.2978207613212920   -0.0000096961967575    0.0000006992577986
    -4.6489165277686313    8.0521693309573976   -0.0000038527109825
     0.0000208283236842    0.0000041112399443    9.9632722220786576
   Al   Si   N 
    35     1    36
Direct
  0.2217961627090688  0.1109489799000229  0.2946632632273278
  0.1110771408711457  0.2225177025058827  0.0455551701111219
  0.8883603307700412  0.1115553896315475  0.7958277355673147
  0.7774888246488274  0.2224052302050339  0.5443382833682264
  0.5554228558990815  0.1113603886920345  0.2950305866540290
  0.4441136486061481  0.2225164621489881  0.0455504903878534
  0.2218976289945758  0.1111909697230899  0.7955607050780387
  0.1110896822729117  0.2213900055192752  0.5446339956475654
  0.8885805184568838  0.1113592153683740  0.2950330340957308
  0.7775470212507116  0.2224175754291267  0.0456528398584624
  0.5558044963315183  0.1115599459171648  0.7958223689755997
  0.4428623766700923  0.2213841063323585  0.5446349676940727
  0.2201208671544848  0.4437095117524521  0.2962676312386705
  0.1110759337675873  0.5558483151066369  0.0455544700227435
  0.8883600203531614  0.4441176882361901  0.7958261853426762
  0.7785102825489147  0.5570292682848930  0.5446347742440807
  0.5562341138701541  0.4437094610567627  0.2962744148869589
  0.4442184184206255  0.5557522770162180  0.0460221301141743
  0.2233393381847577  0.4453252676358304  0.7967212328620832
  0.1110896748501773  0.5570237356617795  0.5446331860824785
  0.8885814502981049  0.4445191190185156  0.2950321032616472
  0.7774486318606364  0.5558490095081723  0.0455522717541967
  0.5545898501349598  0.4453306782152779  0.7967194302414953
  0.2217970676719290  0.7781453855574227  0.2946638297284565
  0.1108797744828180  0.8890845352117012  0.0451111387924286
  0.8887319816135388  0.7780231256989865  0.7955603541621983
  0.7785084737136430  0.8888058051102377  0.5446342830330124
  0.5562333182476280  0.7798238091160883  0.2962722113539300
  0.4441142015812858  0.8888859065991923  0.0455521878923975
  0.2218974741983004  0.7780205466047931  0.7955605559282191
  0.1108233283958313  0.8890730298217591  0.5451581700510886
  0.8889922749867551  0.7781457647295227  0.2946612356814171
  0.7774500345852360  0.8888889994966860  0.0455539447804298
  0.5545883196536892  0.7765713662380875  0.7967207852423925
  0.4428641083244287  0.8888045908603672  0.5446333975769448
  0.4441561505580438  0.5557403404388879  0.5446239886120665
  0.1111046279436820  0.2224432047107001  0.3550693849668320
  0.2219739609688460  0.1112691271442188  0.1044003556413955
  0.7775107489018822  0.2224114000214072  0.8554149834592764
  0.8885289189343624  0.1113618596150445  0.6052837900645258
  0.4439760638163364  0.2224418992946937  0.3550721924593745
  0.5550603472815041  0.1111743572464121  0.1046093097755900
  0.1113395873334539  0.2233132915437395  0.8543643641244643
  0.2220254758825817  0.1114894335516325  0.6051791560409114
  0.7775239245901560  0.2224121066847644  0.3542064508356049
  0.8887912594696914  0.1111759006224986  0.1046112050774823
  0.4445879722850918  0.2233175334665987  0.8543578136867680
  0.5553973085721182  0.1113618830534335  0.6052793792293230
  0.1111055259850886  0.5559617813524866  0.3550691471157990
  0.2229678130692747  0.4451283587262296  0.1065099005782315
  0.7766058345969356  0.5553386182163536  0.8543615108432974
  0.8885279915492745  0.4444915993827081  0.6052827322130838
  0.4441891802796931  0.5557458439921561  0.3658297033826159
  0.5548423342389057  0.4451232189389955  0.1065141653780373
  0.1113397709161390  0.5553374262906132  0.8543625136262065
  0.2349672914341028  0.4511463860266431  0.6019992150157876
  0.7774968827099897  0.5559636984720981  0.3550711943912432
  0.8887899661366419  0.4449027008283153  0.1046102903207000
  0.4441752302377679  0.5557432048809190  0.8564207958677628
  0.5487486314441128  0.4511463410152246  0.6019987957441515
  0.1108592973415341  0.8890797084159630  0.3547820225406824
  0.2219734652596586  0.7779926389286231  0.1044004281553299
  0.7766044935473033  0.8885781137329474  0.8543632008033768
  0.8884054935567463  0.7778665204405044  0.6051786637332910
  0.4439765868166887  0.8888347509032073  0.3550715638877975
  0.5548423200061094  0.7770043562208357  0.1065136090003875
  0.1108471378981548  0.8890796491650335  0.8547607337074794
  0.2220273601476421  0.7778617673501316  0.6051788352999878
  0.7774947113563542  0.8888326110045313  0.3550708534162865
  0.8886973250213117  0.7779920010091388  0.1043987933105868
  0.4445879499122611  0.8885830036433831  0.8543591176672649
  0.5487474352097692  0.7649298459454528  0.6020002368508344
 
  0.00000000E+00  0.00000000E+00  0.00000000E+00
  0.00000000E+00  0.00000000E+00  0.00000000E+00
  0.00000000E+00  0.00000000E+00  0.00000000E+00
  0.00000000E+00  0.00000000E+00  0.00000000E+00
  0.00000000E+00  0.00000000E+00  0.00000000E+00
  0.00000000E+00  0.00000000E+00  0.00000000E+00
  0.00000000E+00  0.00000000E+00  0.00000000E+00
  0.00000000E+00  0.00000000E+00  0.00000000E+00
  0.00000000E+00  0.00000000E+00  0.00000000E+00
  0.00000000E+00  0.00000000E+00  0.00000000E+00
  0.00000000E+00  0.00000000E+00  0.00000000E+00
  0.00000000E+00  0.00000000E+00  0.00000000E+00
  0.00000000E+00  0.00000000E+00  0.00000000E+00
  0.00000000E+00  0.00000000E+00  0.00000000E+00
  0.00000000E+00  0.00000000E+00  0.00000000E+00
  0.00000000E+00  0.00000000E+00  0.00000000E+00
  0.00000000E+00  0.00000000E+00  0.00000000E+00
  0.00000000E+00  0.00000000E+00  0.00000000E+00
  0.00000000E+00  0.00000000E+00  0.00000000E+00
  0.00000000E+00  0.00000000E+00  0.00000000E+00
  0.00000000E+00  0.00000000E+00  0.00000000E+00
  0.00000000E+00  0.00000000E+00  0.00000000E+00
  0.00000000E+00  0.00000000E+00  0.00000000E+00
  0.00000000E+00  0.00000000E+00  0.00000000E+00
  0.00000000E+00  0.00000000E+00  0.00000000E+00
  0.00000000E+00  0.00000000E+00  0.00000000E+00
  0.00000000E+00  0.00000000E+00  0.00000000E+00
  0.00000000E+00  0.00000000E+00  0.00000000E+00
  0.00000000E+00  0.00000000E+00  0.00000000E+00
  0.00000000E+00  0.00000000E+00  0.00000000E+00
  0.00000000E+00  0.00000000E+00  0.00000000E+00
  0.00000000E+00  0.00000000E+00  0.00000000E+00
  0.00000000E+00  0.00000000E+00  0.00000000E+00
  0.00000000E+00  0.00000000E+00  0.00000000E+00
  0.00000000E+00  0.00000000E+00  0.00000000E+00
  0.00000000E+00  0.00000000E+00  0.00000000E+00
  0.00000000E+00  0.00000000E+00  0.00000000E+00
  0.00000000E+00  0.00000000E+00  0.00000000E+00
  0.00000000E+00  0.00000000E+00  0.00000000E+00
  0.00000000E+00  0.00000000E+00  0.00000000E+00
  0.00000000E+00  0.00000000E+00  0.00000000E+00
  0.00000000E+00  0.00000000E+00  0.00000000E+00
  0.00000000E+00  0.00000000E+00  0.00000000E+00
  0.00000000E+00  0.00000000E+00  0.00000000E+00
  0.00000000E+00  0.00000000E+00  0.00000000E+00
  0.00000000E+00  0.00000000E+00  0.00000000E+00
  0.00000000E+00  0.00000000E+00  0.00000000E+00
  0.00000000E+00  0.00000000E+00  0.00000000E+00
  0.00000000E+00  0.00000000E+00  0.00000000E+00
  0.00000000E+00  0.00000000E+00  0.00000000E+00
  0.00000000E+00  0.00000000E+00  0.00000000E+00
  0.00000000E+00  0.00000000E+00  0.00000000E+00
  0.00000000E+00  0.00000000E+00  0.00000000E+00
  0.00000000E+00  0.00000000E+00  0.00000000E+00
  0.00000000E+00  0.00000000E+00  0.00000000E+00
  0.00000000E+00  0.00000000E+00  0.00000000E+00
  0.00000000E+00  0.00000000E+00  0.00000000E+00
  0.00000000E+00  0.00000000E+00  0.00000000E+00
  0.00000000E+00  0.00000000E+00  0.00000000E+00
  0.00000000E+00  0.00000000E+00  0.00000000E+00
  0.00000000E+00  0.00000000E+00  0.00000000E+00
  0.00000000E+00  0.00000000E+00  0.00000000E+00
  0.00000000E+00  0.00000000E+00  0.00000000E+00
  0.00000000E+00  0.00000000E+00  0.00000000E+00
  0.00000000E+00  0.00000000E+00  0.00000000E+00
  0.00000000E+00  0.00000000E+00  0.00000000E+00
  0.00000000E+00  0.00000000E+00  0.00000000E+00
  0.00000000E+00  0.00000000E+00  0.00000000E+00
  0.00000000E+00  0.00000000E+00  0.00000000E+00
  0.00000000E+00  0.00000000E+00  0.00000000E+00
  0.00000000E+00  0.00000000E+00  0.00000000E+00
  0.00000000E+00  0.00000000E+00  0.00000000E+00
