Al   Hf   N                             
   1.00000000000000     
     9.9233886578405883   -0.0000051603361578    0.0000259561112337
    -4.9616975439537798    8.5795302880802105    0.0001009180407991
    -0.0000030142876048   -0.0038867307770155    8.6721936967418660
   Al   Hf   N 
    35     1    36
Direct
  0.2221493314575369  0.1111364936500863  0.3478683622191028
  0.1089566805140478  0.2176806008438987  0.0960113637521971
  0.8897986928707837  0.1113585130508952  0.8414245109673004
  0.7780241660709279  0.2228835459955363  0.5966496132079158
  0.5567883118909478  0.1118017470989372  0.3474338766228797
  0.4418856095478034  0.2176764377925480  0.0960065872969835
  0.2215558274760170  0.1099483303564242  0.8416588051619698
  0.1158965573868755  0.2244789092092887  0.5934640193723553
  0.8881757231092351  0.1118013699423557  0.3474323159100194
  0.7770727699510545  0.2209854062876886  0.0927180661371878
  0.5547218336101309  0.1113575018048678  0.8414140213809063
  0.4417448842081768  0.2244809772807486  0.5934597949946365
  0.2166225464837268  0.4409116962329875  0.3357799307275258
  0.1090491363749919  0.5577845769572889  0.0975750265780135
  0.8895113380077291  0.4458588383493733  0.8457189523903850
  0.7870064124762308  0.5585371972015949  0.5901654598224866
  0.5574501713953666  0.4409110425340970  0.3357653156760421
  0.4444912867981969  0.5558223094214227  0.0976409623760972
  0.2113876351851900  0.4405718804064023  0.8567080866733434
  0.1046946680152487  0.5585400234655040  0.5901662931129863
  0.8874791480908328  0.4417961396907657  0.3422526992934678
  0.7819014358378666  0.5577867560571121  0.0975736518963970
  0.5623490952506600  0.4405702578070958  0.8567112597803686
  0.2230875347858188  0.7794840358921462  0.3426188567056201
  0.1116455908502729  0.8901303154846190  0.0953638083568791
  0.8897412720007196  0.7779399992185674  0.8465171023180815
  0.7808961938987906  0.8923961134887648  0.5949466940277119
  0.5580447153608006  0.7829267589591353  0.3408593365187826
  0.4442635906679442  0.8912450212808878  0.0947160043078412
  0.2213622963420647  0.7779405440495211  0.8465197781132474
  0.1092231134456938  0.8852825291645985  0.5934737300622501
  0.8895576449743103  0.7794837875137901  0.3426246696821096
  0.7801437984098314  0.8912432067421037  0.0947174824589325
  0.5584376085602329  0.7837135113583855  0.8516746814513141
  0.4446604818227868  0.8923938133696225  0.5949411303563963
  0.4362994778649139  0.5394287121318584  0.6043492808674387
  0.1100106144153017  0.2218791775961932  0.3611260318285971
  0.2217292165113136  0.1102961412466925  0.1172287668647201
  0.7776958297217860  0.2222318172341247  0.8610536247380551
  0.8913900594383790  0.1121218454567625  0.6120482870486228
  0.4450315573286971  0.2218819357507726  0.3611272414587745
  0.5569555194190983  0.1115993706825762  0.1153181170461863
  0.1096749772414611  0.2187778633140596  0.8666531652281577
  0.2179365022497421  0.1027104417437101  0.6119804248465499
  0.7776376106816372  0.2221107551924817  0.3667277980106505
  0.8878065267372435  0.1115997144735488  0.1153104049710691
  0.4422652394228379  0.2187737348343362  0.8666553940408335
  0.5538937750811783  0.1121210021595829  0.6120426416601887
  0.1106535849351005  0.5562660519333562  0.3587690643380625
  0.2202192726127663  0.4433165128620402  0.1086272191266673
  0.7827399822824361  0.5582196867200793  0.8717846511279959
  0.8895414373491377  0.4459193646889190  0.6139365233906346
  0.4448973520569979  0.5566280032800890  0.3489945578650264
  0.5562596128135127  0.4433155760831795  0.1086204446738392
  0.1086446765872395  0.5582173803063455  0.8717819735075167
  0.1926930685064221  0.4383743458163352  0.6222557456020112
  0.7787706688154259  0.5562629522624789  0.3587700224336601
  0.8873921104061466  0.4416210071958915  0.1155795106008455
  0.4437057702323415  0.5542502601762536  0.8645190135412619
  0.5788460040218908  0.4383717014694781  0.6222719998531900
  0.1103680178509094  0.8875728536356107  0.3633733402253867
  0.2233580292520969  0.7801554699110511  0.1147121872448054
  0.7797529763466713  0.8899542675240539  0.8642801884652229
  0.8884759197555923  0.7773928332017945  0.6138314396309639
  0.4443004742904222  0.8889895606777429  0.3626597553256303
  0.5565275494179431  0.7798927052063647  0.1089089242668777
  0.1108975562257726  0.8886337043970087  0.8656584524520881
  0.2220797861245671  0.7773940047548251  0.6138354763966518
  0.7778514934688232  0.8889916989836166  0.3626602720834740
  0.8899596456930539  0.7801555713619166  0.1147169958751348
  0.4433658453581657  0.8899563160411930  0.8642816218604423
  0.5627944337904438  0.7924269742754788  0.6150009368023177
 
             NaN             NaN             NaN
             NaN             NaN             NaN
             NaN             NaN             NaN
             NaN             NaN             NaN
             NaN             NaN             NaN
             NaN             NaN             NaN
             NaN             NaN             NaN
             NaN             NaN             NaN
             NaN             NaN             NaN
             NaN             NaN             NaN
             NaN             NaN             NaN
             NaN             NaN             NaN
             NaN             NaN             NaN
             NaN             NaN             NaN
             NaN             NaN             NaN
             NaN             NaN             NaN
             NaN             NaN             NaN
             NaN             NaN             NaN
             NaN             NaN             NaN
             NaN             NaN             NaN
             NaN             NaN             NaN
             NaN             NaN             NaN
             NaN             NaN             NaN
             NaN             NaN             NaN
             NaN             NaN             NaN
             NaN             NaN             NaN
             NaN             NaN             NaN
             NaN             NaN             NaN
             NaN             NaN             NaN
             NaN             NaN             NaN
             NaN             NaN             NaN
             NaN             NaN             NaN
             NaN             NaN             NaN
             NaN             NaN             NaN
             NaN             NaN             NaN
             NaN             NaN             NaN
             NaN             NaN             NaN
             NaN             NaN             NaN
             NaN             NaN             NaN
             NaN             NaN             NaN
             NaN             NaN             NaN
             NaN             NaN             NaN
             NaN             NaN             NaN
             NaN             NaN             NaN
             NaN             NaN             NaN
             NaN             NaN             NaN
             NaN             NaN             NaN
             NaN             NaN             NaN
             NaN             NaN             NaN
             NaN             NaN             NaN
             NaN             NaN             NaN
             NaN             NaN             NaN
             NaN             NaN             NaN
             NaN             NaN             NaN
             NaN             NaN             NaN
             NaN             NaN             NaN
             NaN             NaN             NaN
             NaN             NaN             NaN
             NaN             NaN             NaN
             NaN             NaN             NaN
             NaN             NaN             NaN
             NaN             NaN             NaN
             NaN             NaN             NaN
             NaN             NaN             NaN
             NaN             NaN             NaN
             NaN             NaN             NaN
             NaN             NaN             NaN
             NaN             NaN             NaN
             NaN             NaN             NaN
             NaN             NaN             NaN
             NaN             NaN             NaN
             NaN             NaN             NaN
