Al   Hf   N                             
   1.00000000000000     
     9.4355428630178828   -0.0000027509162280    0.0000335464256137
    -4.7177689194458816    8.1731916236510944   -0.0007082110462799
    -0.0000354463778878   -0.0010408903672956   10.0792903219492143
   Al   Hf   N 
    35     1    36
Direct
  0.2212766975275713  0.1094578727442865  0.4080422095774310
  0.1093275734837675  0.2195815955077052  0.1588124316913380
  0.8876591369931575  0.1109248159539362  0.9105312116381157
  0.7774610476871047  0.2218265857297013  0.6590667182288428
  0.5548160802711948  0.1117506445030259  0.4118240952720456
  0.4433496036497218  0.2195816098675891  0.1588124305416585
  0.2218728053817571  0.1106500505513850  0.9099848682810432
  0.1158905921379016  0.2232131403238498  0.6623509870597246
  0.8900300985964975  0.1117506404014676  0.4118240867530290
  0.7775360296886547  0.2219764687245487  0.1608311430809053
  0.5563612445122814  0.1109248655789443  0.9105311975306307
  0.4404180041217103  0.2232131459292290  0.6623509868467892
  0.2137186477087525  0.4413061236841571  0.4008627186553539
  0.1095827734253660  0.5568176627297490  0.1582895994107716
  0.8881135081179679  0.4431314795589785  0.9089225802707546
  0.7835093018300725  0.5556656819991943  0.6590808639063255
  0.5606829653756407  0.4413061048353768  0.4008627236430087
  0.4446559172999756  0.5562163159171263  0.1615723462516527
  0.2198527882505275  0.4420273475854870  0.9156378336058353
  0.1052518294400429  0.5556656567549894  0.6590808602241509
  0.8889917149004702  0.4448879068510365  0.4095148166534344
  0.7803303927100913  0.5568176292554341  0.1582896038153052
  0.5552700875652619  0.4420273956319676  0.9156378303103452
  0.2216310172779288  0.7779307666946522  0.4094448183748227
  0.1106743087419844  0.8882530327759852  0.1589052441168946
  0.8886265908699400  0.7779871339572253  0.9089803373726397
  0.7821966146558097  0.8947103118441930  0.6604484849985113
  0.5587001503696172  0.7843047762408872  0.4071328972232351
  0.4437303860077151  0.8901201941208754  0.1609064084536058
  0.2224561353405790  0.7779871346914007  0.9089803308843685
  0.1106130412981727  0.8881305410307405  0.6587425304644583
  0.8893953048189616  0.7779307607611088  0.4094448166294171
  0.7794853521170637  0.8901201482905279  0.1609064213455298
  0.5577067146394157  0.7823178866619571  0.9161760077904830
  0.4456092024566374  0.8947103271489141  0.6604484823054477
  0.4374491855746214  0.5418029125417618  0.6539334867830178
  0.1096349756875199  0.2193995793060992  0.3476414924237048
  0.2215454487192758  0.1099953307339234  0.0999807151500534
  0.7774938638138806  0.2218921709321080  0.8500566128139226
  0.8921732175115622  0.1132408423725266  0.6020344726041813
  0.4428601253706717  0.2193995743649282  0.3476414925473605
  0.5563626370143808  0.1108046040198900  0.1007562641973081
  0.1091493084261117  0.2211323779120349  0.8544180886681829
  0.2195583319837056  0.1060211875634707  0.5971334451574251
  0.7776844818950011  0.2222734406360942  0.3518066066573979
  0.8875375139969037  0.1108045611882886  0.1007562741503847
  0.4450786081506308  0.2211324133708956  0.8544180809447610
  0.5541631182565894  0.1132408636290521  0.6020344832326003
  0.1090354493168064  0.5577451205289279  0.3467439777584289
  0.2210932769375731  0.4440273244476316  0.1053635691691426
  0.7762078695090935  0.5547384486829330  0.8503558676557006
  0.8886044302201555  0.4441134039849857  0.5998921809886397
  0.4442829072516687  0.5554703106429528  0.3573314540152879
  0.5560295681264265  0.4440273316104850  0.1053635613360413
  0.1116260988058571  0.5547384429639166  0.8503558575519747
  0.1948602962850288  0.4353577419072678  0.5873346646178987
  0.7818051732296070  0.5577451066249992  0.3467439748288754
  0.8883022894806132  0.4435090433334707  0.0987587495762057
  0.4461149985917743  0.5591345058153436  0.8682246491320171
  0.5735929195177860  0.4353577561913937  0.5873346718463992
  0.1104512010760317  0.8878068445124825  0.3490003048503283
  0.2224517243159596  0.7782299689495247  0.0991028983385931
  0.7770973419683784  0.8888496478411767  0.8513787485367956
  0.8879542795847684  0.7773475999405690  0.6007744494415377
  0.4432470828707693  0.8901366589606923  0.3504459949075951
  0.5563629893161064  0.7796304190767103  0.1061377223767366
  0.1107406875788541  0.8883857921268330  0.8494703075775831
  0.2224888400793574  0.7773475884963617  0.6007744482446924
  0.7799851206243673  0.8901366469564138  0.3504460056014977
  0.8888738156809168  0.7782299490764544  0.0991029039514046
  0.4448478788268631  0.8888496779622486  0.8513787430206250
  0.5651494015488510  0.7972033024876808  0.5965579830368384
 
             NaN             NaN             NaN
             NaN             NaN             NaN
             NaN             NaN             NaN
             NaN             NaN             NaN
             NaN             NaN             NaN
             NaN             NaN             NaN
             NaN             NaN             NaN
             NaN             NaN             NaN
             NaN             NaN             NaN
             NaN             NaN             NaN
             NaN             NaN             NaN
             NaN             NaN             NaN
             NaN             NaN             NaN
             NaN             NaN             NaN
             NaN             NaN             NaN
             NaN             NaN             NaN
             NaN             NaN             NaN
             NaN             NaN             NaN
             NaN             NaN             NaN
             NaN             NaN             NaN
             NaN             NaN             NaN
             NaN             NaN             NaN
             NaN             NaN             NaN
             NaN             NaN             NaN
             NaN             NaN             NaN
             NaN             NaN             NaN
             NaN             NaN             NaN
             NaN             NaN             NaN
             NaN             NaN             NaN
             NaN             NaN             NaN
             NaN             NaN             NaN
             NaN             NaN             NaN
             NaN             NaN             NaN
             NaN             NaN             NaN
             NaN             NaN             NaN
             NaN             NaN             NaN
             NaN             NaN             NaN
             NaN             NaN             NaN
             NaN             NaN             NaN
             NaN             NaN             NaN
             NaN             NaN             NaN
             NaN             NaN             NaN
             NaN             NaN             NaN
             NaN             NaN             NaN
             NaN             NaN             NaN
             NaN             NaN             NaN
             NaN             NaN             NaN
             NaN             NaN             NaN
             NaN             NaN             NaN
             NaN             NaN             NaN
             NaN             NaN             NaN
             NaN             NaN             NaN
             NaN             NaN             NaN
             NaN             NaN             NaN
             NaN             NaN             NaN
             NaN             NaN             NaN
             NaN             NaN             NaN
             NaN             NaN             NaN
             NaN             NaN             NaN
             NaN             NaN             NaN
             NaN             NaN             NaN
             NaN             NaN             NaN
             NaN             NaN             NaN
             NaN             NaN             NaN
             NaN             NaN             NaN
             NaN             NaN             NaN
             NaN             NaN             NaN
             NaN             NaN             NaN
             NaN             NaN             NaN
             NaN             NaN             NaN
             NaN             NaN             NaN
             NaN             NaN             NaN
