Al   Hf   N                             
   1.00000000000000     
     9.9830593148755735   -0.0000049840371385    0.0000265115000908
    -4.9915325831345800    8.6294227805618124    0.0000417134734518
     0.0000019060731300   -0.0023106999647145    8.4947376308065525
   Al   Hf   N 
    35     1    36
Direct
  0.2220512192759330  0.1109403090158096  0.3531141019319293
  0.1092650299041651  0.2183150498712223  0.1012273248638778
  0.8893144781347004  0.1114818299267881  0.8483940801803413
  0.7779490446556991  0.2227343744547525  0.6016051329725585
  0.5561988204464683  0.1117046660524110  0.3532684479582500
  0.4422116894409953  0.2183118209287187  0.1012175239384590
  0.2216963824799265  0.1102293534910217  0.8484176036486630
  0.1157285378875841  0.2238590965013429  0.6003705665241057
  0.8886681224840345  0.1117040317527724  0.3532739752334706
  0.7770375214983787  0.2209136437619961  0.1000131078344921
  0.5553295343738185  0.1114806175784864  0.8483821705878256
  0.4412933545612461  0.2238602399459353  0.6003626869798140
  0.2147708306740554  0.4406266177668243  0.3421671806894366
  0.1093440028136641  0.5576589441084963  0.1017966809658262
  0.8889432990558177  0.4447223055677867  0.8526475037592505
  0.7877393920361584  0.5589846684141548  0.5979549876632291
  0.5590155208251559  0.4406264017711337  0.3421478665332671
  0.4443678178149710  0.5555749642449044  0.1019969071552467
  0.2123081487835634  0.4405798019764973  0.8599563871546678
  0.1044087791596695  0.5589866263326684  0.5979580578037584
  0.8879509732308435  0.4427401651197798  0.3477046310225305
  0.7814800574268119  0.5576602281010707  0.1017929365028962
  0.5614375401961667  0.4405779368555898  0.8599514759583968
  0.2227709527315227  0.7791882572877284  0.3483815118423550
  0.1115636369351947  0.8899655643642390  0.1012747113914543
  0.8897362368597825  0.7784019355612699  0.8530247072996033
  0.7810137453555654  0.8924704185809915  0.6012338215760664
  0.5582452817332353  0.7833278659773342  0.3471536757819322
  0.4444009927289869  0.8909899843200719  0.1010490067102126
  0.2218294733619786  0.7784024076308000  0.8530241185942415
  0.1093129623998479  0.8854630295856367  0.5999535680348131
  0.8895783040326819  0.7791879461852318  0.3483859150183974
  0.7797514875469744  0.8909891505005021  0.1010533464096497
  0.5582985912168255  0.7834353388493582  0.8565893409072629
  0.4446182293912457  0.8924692032055148  0.6012253860156704
  0.4363325166133833  0.5394960472462600  0.6046391683038337
  0.1099258233066749  0.2210714171753523  0.3558729175298225
  0.2218431532079208  0.1105240645619432  0.1096430509243547
  0.7776661921804831  0.2221717507388021  0.8562100540671409
  0.8910713638180496  0.1121292220584706  0.6071554894913476
  0.4443089979128771  0.2210746528092571  0.3558766968440779
  0.5566006134103318  0.1115464969101794  0.1084646536716818
  0.1098127813637149  0.2196338448610859  0.8602204857559101
  0.2177339635396223  0.1023051529023604  0.6070734657091066
  0.7775756764302457  0.2219871433149905  0.3597510127858854
  0.8881087999020920  0.1115469484123537  0.1084560987552408
  0.4429831488073788  0.2196293512235954  0.8602255078988392
  0.5542201057999208  0.1121286798058989  0.6071534777793914
  0.1100356741652604  0.5568498554765640  0.3534107327413452
  0.2198244593993692  0.4432513421866418  0.1059050801898564
  0.7818907459034961  0.5577816190490168  0.8646454680499644
  0.8892297889811829  0.4452964359990048  0.6081885441390895
  0.4445405687660440  0.5559143687960457  0.3458249622376286
  0.5565891619621794  0.4432504595080005  0.1058999787084787
  0.1090566679989138  0.5577792890327586  0.8646406297968099
  0.1935420462476998  0.4388940859446535  0.6121678252443203
  0.7799713285518308  0.5568465547838386  0.3534133306663492
  0.8875752712090730  0.4419871437423879  0.1090487289942885
  0.4439983273842643  0.5548357863402344  0.8644127821828462
  0.5785162937952464  0.4388918359268672  0.6121912267506602
  0.1104900141987315  0.8878173916454628  0.3568458538877550
  0.2233969222615571  0.7799860139902961  0.1084493872047290
  0.7790988334350430  0.8896030991227590  0.8584224785987900
  0.8887356354889775  0.7778002416510361  0.6079436218752505
  0.4441218481557527  0.8893149676451202  0.3567659980395064
  0.5565721283598677  0.7799819437427473  0.1057214552847299
  0.1107278393931423  0.8882936491333240  0.8597781794265131
  0.2222273912174870  0.7778013677138489  0.6079465121883345
  0.7783554599243701  0.8893165553956663  0.3567645142444889
  0.8897514503498627  0.7799860898454725  0.1084526880516208
  0.4436685405426530  0.8896045919177666  0.8584246406863230
  0.5624697505197815  0.7917772453708594  0.6079473573475127
 
             NaN             NaN             NaN
             NaN             NaN             NaN
             NaN             NaN             NaN
             NaN             NaN             NaN
             NaN             NaN             NaN
             NaN             NaN             NaN
             NaN             NaN             NaN
             NaN             NaN             NaN
             NaN             NaN             NaN
             NaN             NaN             NaN
             NaN             NaN             NaN
             NaN             NaN             NaN
             NaN             NaN             NaN
             NaN             NaN             NaN
             NaN             NaN             NaN
             NaN             NaN             NaN
             NaN             NaN             NaN
             NaN             NaN             NaN
             NaN             NaN             NaN
             NaN             NaN             NaN
             NaN             NaN             NaN
             NaN             NaN             NaN
             NaN             NaN             NaN
             NaN             NaN             NaN
             NaN             NaN             NaN
             NaN             NaN             NaN
             NaN             NaN             NaN
             NaN             NaN             NaN
             NaN             NaN             NaN
             NaN             NaN             NaN
             NaN             NaN             NaN
             NaN             NaN             NaN
             NaN             NaN             NaN
             NaN             NaN             NaN
             NaN             NaN             NaN
             NaN             NaN             NaN
             NaN             NaN             NaN
             NaN             NaN             NaN
             NaN             NaN             NaN
             NaN             NaN             NaN
             NaN             NaN             NaN
             NaN             NaN             NaN
             NaN             NaN             NaN
             NaN             NaN             NaN
             NaN             NaN             NaN
             NaN             NaN             NaN
             NaN             NaN             NaN
             NaN             NaN             NaN
             NaN             NaN             NaN
             NaN             NaN             NaN
             NaN             NaN             NaN
             NaN             NaN             NaN
             NaN             NaN             NaN
             NaN             NaN             NaN
             NaN             NaN             NaN
             NaN             NaN             NaN
             NaN             NaN             NaN
             NaN             NaN             NaN
             NaN             NaN             NaN
             NaN             NaN             NaN
             NaN             NaN             NaN
             NaN             NaN             NaN
             NaN             NaN             NaN
             NaN             NaN             NaN
             NaN             NaN             NaN
             NaN             NaN             NaN
             NaN             NaN             NaN
             NaN             NaN             NaN
             NaN             NaN             NaN
             NaN             NaN             NaN
             NaN             NaN             NaN
             NaN             NaN             NaN
