Al   Hf   N                             
   1.00000000000000     
     9.8345644212090111   -0.0000053954015168    0.0000252155927576
    -4.9172848113386509    8.5048469282311299    0.0001798574639287
    -0.0000077362685113   -0.0055579393362582    8.9461244536466733
   Al   Hf   N 
    35     1    36
Direct
  0.2221853662307751  0.1112087445751158  0.3414944144400280
  0.1086329405461299  0.2172105317577078  0.0900846096209165
  0.8901944237264772  0.1112580452528391  0.8344065233633415
  0.7779977510888045  0.2228302589056881  0.5907974667534219
  0.5572330912525132  0.1117420411867727  0.3404519926194070
  0.4417393955221272  0.2172064465739680  0.0900834243650337
  0.2214299482296340  0.1096968954392139  0.8353678083233618
  0.1157852260081285  0.2248840542076067  0.5858281111879791
  0.8876714143975946  0.1117419115013618  0.3404467385369969
  0.7771569150447917  0.2211538920204887  0.0854038141557680
  0.5542257073522237  0.1112572925869770  0.8343987706870237
  0.4422611200582693  0.2248862425463258  0.5858265187150948
  0.2186238152976188  0.4414849476592053  0.3295720391701522
  0.1088140763361309  0.5579476750113486  0.0922122931513769
  0.8898536101813548  0.4465437834696857  0.8382702635804691
  0.7857702275730247  0.5576846229214070  0.5837225685519272
  0.5560230360275824  0.4414842680039541  0.3295629586285003
  0.4446314425754778  0.5561025357157163  0.0904782307885483
  0.2103046925872150  0.4402959572554010  0.8520276639138942
  0.1050787038388918  0.5576875633131948  0.5837225889602777
  0.8872644418053852  0.4413662722712033  0.3369804366985534
  0.7822997470596249  0.5579501730512320  0.0922122970264212
  0.5631551183419603  0.4402947964989110  0.8520351030567070
  0.2232039925379112  0.7795487168659747  0.3369460488548341
  0.1115990763090977  0.8900377729057922  0.0886861982066307
  0.8897334960588452  0.7777121563675635  0.8391217858063911
  0.7807777994389085  0.8925606939389610  0.5877351705119196
  0.5577767424253324  0.7823906977688111  0.3331976375034245
  0.4440229124366937  0.8913467954978387  0.0876996052902257
  0.2211419398663494  0.7777126863188784  0.8391260563570810
  0.1093815438669097  0.8855989671106244  0.5872949959744460
  0.8895061177659613  0.7795486706969541  0.3369517290164197
  0.7804863816392427  0.8913447755871431  0.0876991967311156
  0.5588383962874985  0.7845148678281859  0.8447169589356918
  0.4449430810356816  0.8925578488836194  0.5877322741395901
  0.4362974984147172  0.5394251488754733  0.6029331089045087
  0.1099270783586022  0.2223734590363264  0.3668371174705527
  0.2215871744583140  0.1100123117502250  0.1242499580027925
  0.7777323410109389  0.2223047724044775  0.8669049943718719
  0.8916651613278574  0.1121377136363719  0.6179790239070826
  0.4456089187582961  0.2223755245589132  0.3668364590447624
  0.5572423178126513  0.1115269415071438  0.1221795919578597
  0.1094253218765715  0.2179967016712752  0.8737309632701624
  0.2185103517933058  0.1038584301144709  0.6185373400047069
  0.7776690611155530  0.2221733130244417  0.3736541818067849
  0.8874473707511896  0.1115271880935680  0.1221734355033348
  0.4417337038796987  0.2179930301334210  0.8737315348963222
  0.5536346344749958  0.1121368360790882  0.6179720034086529
  0.1112354809571201  0.5557178238639437  0.3653269984539662
  0.2206697329794878  0.4435313808092758  0.1127925571177215
  0.7835784796433032  0.5586788065002182  0.8782272928522588
  0.8897163718988566  0.4462687712602573  0.6199769352259921
  0.4454248420040585  0.5576835920876775  0.3546164495501074
  0.5560242221658172  0.4435307031365880  0.1127852539169041
  0.1082646122075488  0.5586765393638728  0.8782259501445466
  0.1915857691118887  0.4371287491762459  0.6323488684273784
  0.7776417837457004  0.5557151892824734  0.3653270456861151
  0.8873399363256098  0.4415166959807664  0.1224185878699018
  0.4434594273045320  0.5537573098171862  0.8648964701870696
  0.5787078050028569  0.4371263989168668  0.6323590122942306
  0.1103991616040716  0.8876347874842452  0.3705525412183448
  0.2232280577809291  0.7801943963473761  0.1215643808288789
  0.7803762109436789  0.8902438923091864  0.8708961543472498
  0.8881874112288131  0.7770920674584900  0.6200714208654787
  0.4445305870638876  0.8887630718923702  0.3692435542202972
  0.5564859687447949  0.7798092602787108  0.1136871601549103
  0.1109617381417536  0.8887624945748840  0.8717565128773259
  0.2220674519555388  0.7770929709122640  0.6200757498369640
  0.7773950726278613  0.8887655567375319  0.3692450959613964
  0.8901284687548383  0.7801946202612839  0.1215696274834173
  0.4430323036787343  0.8902459677839119  0.8708968662797361
  0.5635337577741595  0.7939054845854372  0.6231487439097592
 
             NaN             NaN             NaN
             NaN             NaN             NaN
             NaN             NaN             NaN
             NaN             NaN             NaN
             NaN             NaN             NaN
             NaN             NaN             NaN
             NaN             NaN             NaN
             NaN             NaN             NaN
             NaN             NaN             NaN
             NaN             NaN             NaN
             NaN             NaN             NaN
             NaN             NaN             NaN
             NaN             NaN             NaN
             NaN             NaN             NaN
             NaN             NaN             NaN
             NaN             NaN             NaN
             NaN             NaN             NaN
             NaN             NaN             NaN
             NaN             NaN             NaN
             NaN             NaN             NaN
             NaN             NaN             NaN
             NaN             NaN             NaN
             NaN             NaN             NaN
             NaN             NaN             NaN
             NaN             NaN             NaN
             NaN             NaN             NaN
             NaN             NaN             NaN
             NaN             NaN             NaN
             NaN             NaN             NaN
             NaN             NaN             NaN
             NaN             NaN             NaN
             NaN             NaN             NaN
             NaN             NaN             NaN
             NaN             NaN             NaN
             NaN             NaN             NaN
             NaN             NaN             NaN
             NaN             NaN             NaN
             NaN             NaN             NaN
             NaN             NaN             NaN
             NaN             NaN             NaN
             NaN             NaN             NaN
             NaN             NaN             NaN
             NaN             NaN             NaN
             NaN             NaN             NaN
             NaN             NaN             NaN
             NaN             NaN             NaN
             NaN             NaN             NaN
             NaN             NaN             NaN
             NaN             NaN             NaN
             NaN             NaN             NaN
             NaN             NaN             NaN
             NaN             NaN             NaN
             NaN             NaN             NaN
             NaN             NaN             NaN
             NaN             NaN             NaN
             NaN             NaN             NaN
             NaN             NaN             NaN
             NaN             NaN             NaN
             NaN             NaN             NaN
             NaN             NaN             NaN
             NaN             NaN             NaN
             NaN             NaN             NaN
             NaN             NaN             NaN
             NaN             NaN             NaN
             NaN             NaN             NaN
             NaN             NaN             NaN
             NaN             NaN             NaN
             NaN             NaN             NaN
             NaN             NaN             NaN
             NaN             NaN             NaN
             NaN             NaN             NaN
             NaN             NaN             NaN
