Al   Hf   N                             
   1.00000000000000     
     9.8804170961419935   -0.0000045139064205    0.0000279925370430
    -4.9401976077936878    8.5432670384366602   -0.0001161653728075
    -0.0000014187444457    0.0041824316677426    8.8049638132053207
   Al   Hf   N 
    35     1    36
Direct
  0.2214926952422687  0.1098224818056863  0.3706757609155034
  0.1087591049831360  0.2174113313788197  0.1160242373714269
  0.8879020067832286  0.1117813548580031  0.8650673328814733
  0.7780467563303617  0.2229333415395445  0.6153409579647899
  0.5544437982842183  0.1113028457933751  0.3714172298031784
  0.4418163393399439  0.2174165945429394  0.1160198643017338
  0.2221665072171959  0.1111697933579734  0.8644064483483263
  0.1159368195594226  0.2247327044477103  0.6194575078125411
  0.8900216665266001  0.1113016236610420  0.3714281198022320
  0.7770865096303439  0.2210064815259329  0.1202105552431902
  0.5570426101289456  0.1117806346936305  0.8650730019819406
  0.4419589614603510  0.2247293042858658  0.6194552999460399
  0.2108580135619391  0.4404681870688734  0.3545812749129382
  0.1089500297501473  0.5578783768043891  0.1140750176433443
  0.8873258157626438  0.4414876302052235  0.8696714835497588
  0.7864735208960667  0.5581491709229098  0.6224298930518657
  0.5627711070954362  0.4404695743494713  0.3545889239860145
  0.4445347517939666  0.5559029158204183  0.1146605608672928
  0.2176014462244780  0.4411490532818618  0.8764297033454369
  0.1048374216559083  0.5581453925457254  0.6224307739732069
  0.8897259457515361  0.4462899491546182  0.3670835829718087
  0.7820867225739647  0.5578749883791474  0.1140737737436410
  0.5567123562010465  0.4411498409815664  0.8764138366285081
  0.2212150374929678  0.7777813218596492  0.3663811008897113
  0.1116284570673329  0.8900908059777350  0.1171473047987277
  0.8895530727398508  0.7795684667401090  0.8694086843311553
  0.7807894374608253  0.8924188495948968  0.6178402543421129
  0.5586366615519509  0.7841092139164019  0.3606988379915919
  0.4441216643930090  0.8913577801111430  0.1180317694983160
  0.2231798618406984  0.7795683504586748  0.8694012797000781
  0.1092687345562808  0.8853765617187719  0.6188355626830813
  0.8897289708229579  0.7777818204592677  0.3663749363726296
  0.7803996068537344  0.8913604627540224  0.1180313548157983
  0.5579080320821319  0.7826532779925444  0.8723268454742339
  0.4447956155245336  0.8924221970660327  0.6178360979115780
  0.4363327754701345  0.5395118796813776  0.6051543298565889
  0.1095267748440207  0.2183676330067428  0.3385604056675717
  0.2216571992540182  0.1101511860244173  0.0879366620752720
  0.7776771481894471  0.2221935795390593  0.8384306226274987
  0.8915429992893920  0.1121209395716392  0.5938777451939430
  0.4420045641564769  0.2183725780865089  0.3385611838097020
  0.5571196696273404  0.1115736211716651  0.0898059341417934
  0.1100069884866244  0.2221517871940435  0.8447597221966561
  0.2181582161008180  0.1031530596762167  0.5935636286480346
  0.7776915005193175  0.2222163465294642  0.3448653380432134
  0.8876172803640401  0.1115735312712118  0.0897974850124115
  0.4453075055222229  0.2221480901793527  0.8447605363298791
  0.5537418269209056  0.1121220024313274  0.5938693970921776
  0.1084797630044321  0.5584650209184758  0.3336186558795902
  0.2204451373011054  0.4433982405394730  0.0982356809103919
  0.7782327524584574  0.5559804806155881  0.8468909007069030
  0.8896596578483980  0.4461571622721010  0.5916924008215787
  0.4435599340306524  0.5539548198391628  0.3442764123946063
  0.5561164340791080  0.4433992231176305  0.0982256807527619
  0.1109125348379010  0.5559767363518944  0.8468903510722043
  0.1921195011953714  0.4378594427164941  0.5814356166617145
  0.7831427303137772  0.5584616574519288  0.3336210443861489
  0.8873340567272834  0.4415055817821738  0.0898546497621595
  0.4451444070086623  0.5571305250287963  0.8572394645511068
  0.5789002576968088  0.4378622358916928  0.5814530951735222
  0.1109311373568787  0.8886970483573720  0.3400182799944389
  0.2233124800217041  0.7802062511494086  0.0905792752279382
  0.7775346249968820  0.8887975400921277  0.8427329182691352
  0.8883252007662747  0.7772173956057031  0.5917850785019780
  0.4431731501265119  0.8901605041135667  0.3411197909097368
  0.5565072311441668  0.7798512688166852  0.0977208470981026
  0.1103681295204311  0.8875744937121155  0.8417735474165013
  0.2220549028746888  0.7772161971172693  0.5917910731444351
  0.7801505616328441  0.8901631904241682  0.3411184415824096
  0.8900575005914817  0.7802059517861224  0.0905864453015184
  0.4444290740147068  0.8888003738575847  0.8427311094360945
  0.5631475983131011  0.7931312393480638  0.5893669825084871
 
             NaN             NaN             NaN
             NaN             NaN             NaN
             NaN             NaN             NaN
             NaN             NaN             NaN
             NaN             NaN             NaN
             NaN             NaN             NaN
             NaN             NaN             NaN
             NaN             NaN             NaN
             NaN             NaN             NaN
             NaN             NaN             NaN
             NaN             NaN             NaN
             NaN             NaN             NaN
             NaN             NaN             NaN
             NaN             NaN             NaN
             NaN             NaN             NaN
             NaN             NaN             NaN
             NaN             NaN             NaN
             NaN             NaN             NaN
             NaN             NaN             NaN
             NaN             NaN             NaN
             NaN             NaN             NaN
             NaN             NaN             NaN
             NaN             NaN             NaN
             NaN             NaN             NaN
             NaN             NaN             NaN
             NaN             NaN             NaN
             NaN             NaN             NaN
             NaN             NaN             NaN
             NaN             NaN             NaN
             NaN             NaN             NaN
             NaN             NaN             NaN
             NaN             NaN             NaN
             NaN             NaN             NaN
             NaN             NaN             NaN
             NaN             NaN             NaN
             NaN             NaN             NaN
             NaN             NaN             NaN
             NaN             NaN             NaN
             NaN             NaN             NaN
             NaN             NaN             NaN
             NaN             NaN             NaN
             NaN             NaN             NaN
             NaN             NaN             NaN
             NaN             NaN             NaN
             NaN             NaN             NaN
             NaN             NaN             NaN
             NaN             NaN             NaN
             NaN             NaN             NaN
             NaN             NaN             NaN
             NaN             NaN             NaN
             NaN             NaN             NaN
             NaN             NaN             NaN
             NaN             NaN             NaN
             NaN             NaN             NaN
             NaN             NaN             NaN
             NaN             NaN             NaN
             NaN             NaN             NaN
             NaN             NaN             NaN
             NaN             NaN             NaN
             NaN             NaN             NaN
             NaN             NaN             NaN
             NaN             NaN             NaN
             NaN             NaN             NaN
             NaN             NaN             NaN
             NaN             NaN             NaN
             NaN             NaN             NaN
             NaN             NaN             NaN
             NaN             NaN             NaN
             NaN             NaN             NaN
             NaN             NaN             NaN
             NaN             NaN             NaN
             NaN             NaN             NaN
