Al   Hf   N                             
   1.00000000000000     
     9.5646110956877113   -0.0000059242985746    0.0000235494261864
    -4.7823059285839680    8.2777812173125049    0.0003574711659704
    -0.0000151188274209   -0.0087615480776509    9.7407588565929668
   Al   Hf   N 
    35     1    36
Direct
  0.2220743865444703  0.1109865326718662  0.3282096734923456
  0.1090412322940324  0.2187343178764181  0.0794105127800080
  0.8900253947812757  0.1112738455485740  0.8249221928185619
  0.7775823568599520  0.2220009480512743  0.5789002829963366
  0.5569972938837537  0.1114194211417825  0.3272103158861341
  0.4428554385741279  0.2187327056639461  0.0794107180822365
  0.2214482894414047  0.1097336937394147  0.8279428555488906
  0.1141006498463497  0.2232384786780415  0.5741429237014799
  0.8875850072850540  0.1114195954770452  0.3272086956664921
  0.7775289988673535  0.2218961605955059  0.0755943744384879
  0.5544110061175402  0.1112735435616230  0.8249199940768435
  0.4423007166787585  0.2232393340784284  0.5741424847665826
  0.2219858056506965  0.4433044799004762  0.3219107191135606
  0.1093577374736583  0.5574640846986583  0.0802466472728938
  0.8894277160181971  0.4456921931622304  0.8270966024076358
  0.7837034868063597  0.5558449292573897  0.5762881171654257
  0.5544810003071063  0.4433040763484613  0.3219085576830096
  0.4447518426164265  0.5563419048773781  0.0737276560464366
  0.2098896490916502  0.4396461098010604  0.8383284720682553
  0.1053055714380022  0.5558462662039290  0.5762877237081128
  0.8878856159137598  0.4426085572304572  0.3280024822354832
  0.7812703704901693  0.5574649720267928  0.0802469344918393
  0.5629196252692026  0.4396456054139293  0.8383317708412150
  0.2227553859704088  0.7786966324669464  0.3278554727175234
  0.1110450898136719  0.8889285666540232  0.0777889226182253
  0.8895349825830294  0.7779178679068224  0.8274691958008233
  0.7813813118322628  0.8939352905348272  0.5759086601458421
  0.5571432458791463  0.7811238320050293  0.3222083051511149
  0.4438204710871005  0.8903799057749424  0.0767790940967501
  0.2215458126965686  0.7779180601188216  0.8274704740142624
  0.1105825084628691  0.8880017552179993  0.5781425578860606
  0.8891033081998998  0.7786965477016707  0.3278573580979725
  0.7797220800982672  0.8903792586552228  0.0767790155989871
  0.5596163614116350  0.7860700718474263  0.8299754938660371
  0.4457157559200837  0.8939340894092140  0.5759079691005908
  0.4364709081079283  0.5397752774416631  0.5939325046952533
  0.1096354455509214  0.2220382885739696  0.3770066931216220
  0.2215259254150510  0.1098897213622649  0.1327603460467301
  0.7777848515852668  0.2224078495459239  0.8789504099628473
  0.8916161873989168  0.1123793203126127  0.6294324330377350
  0.4455653523578746  0.2220386125977853  0.3770060153861152
  0.5569752735296447  0.1111468885094666  0.1314441986922574
  0.1090770503926493  0.2181558150658489  0.8848641344003454
  0.2203156039188698  0.1074685730747191  0.6326837401668826
  0.7776432391251689  0.2221229501845627  0.3826023071134017
  0.8873345192149600  0.1111471351666609  0.1314425490196740
  0.4422412523324297  0.2181541827132634  0.8848645062403406
  0.5539257021541388  0.1123788778395536  0.6294301600173142
  0.1117725801201104  0.5550870919480886  0.3795866318646830
  0.2219760551546344  0.4445415797779049  0.1251680895294314
  0.7832273482269301  0.5584805981197860  0.8863720832609019
  0.8891498217998546  0.4451356157521005  0.6310652919738118
  0.4464012881767161  0.5596388911887757  0.3684519020841179
  0.5557280921697867  0.4445412992876570  0.1251657143541607
  0.1084168447835694  0.5584797436110733  0.8863715543627180
  0.1906640662713386  0.4334073801534686  0.6452378112097108
  0.7764760451184785  0.5550860568921934  0.3795867823692944
  0.8880339767600489  0.4429050453894590  0.1331416615811989
  0.4436689875298541  0.5541753269795606  0.8693214487277388
  0.5759075411019907  0.4334060945284648  0.6452411307478201
  0.1108650900963255  0.8885673269122023  0.3822609968673945
  0.2226264901783850  0.7791871600141178  0.1325512519752792
  0.7802527072634291  0.8900938395729057  0.8816083956332079
  0.8879185760790094  0.7772687052322595  0.6305822117972610
  0.4448771624817240  0.8891646669143611  0.3796358862987432
  0.5560384823121467  0.7789143920536929  0.1250307992729205
  0.1107476142355353  0.8883331444345615  0.8819676574919555
  0.2225128323852346  0.7772690783041298  0.6305834624877136
  0.7774501421752120  0.8891656892542557  0.3796364517455260
  0.8897229095859700  0.7791872210961586  0.1325530132178798
  0.4430045643070954  0.8900944463334284  0.8816084328097133
  0.5657532507417571  0.7983439881381429  0.6343372577594835
 
             NaN             NaN             NaN
             NaN             NaN             NaN
             NaN             NaN             NaN
             NaN             NaN             NaN
             NaN             NaN             NaN
             NaN             NaN             NaN
             NaN             NaN             NaN
             NaN             NaN             NaN
             NaN             NaN             NaN
             NaN             NaN             NaN
             NaN             NaN             NaN
             NaN             NaN             NaN
             NaN             NaN             NaN
             NaN             NaN             NaN
             NaN             NaN             NaN
             NaN             NaN             NaN
             NaN             NaN             NaN
             NaN             NaN             NaN
             NaN             NaN             NaN
             NaN             NaN             NaN
             NaN             NaN             NaN
             NaN             NaN             NaN
             NaN             NaN             NaN
             NaN             NaN             NaN
             NaN             NaN             NaN
             NaN             NaN             NaN
             NaN             NaN             NaN
             NaN             NaN             NaN
             NaN             NaN             NaN
             NaN             NaN             NaN
             NaN             NaN             NaN
             NaN             NaN             NaN
             NaN             NaN             NaN
             NaN             NaN             NaN
             NaN             NaN             NaN
             NaN             NaN             NaN
             NaN             NaN             NaN
             NaN             NaN             NaN
             NaN             NaN             NaN
             NaN             NaN             NaN
             NaN             NaN             NaN
             NaN             NaN             NaN
             NaN             NaN             NaN
             NaN             NaN             NaN
             NaN             NaN             NaN
             NaN             NaN             NaN
             NaN             NaN             NaN
             NaN             NaN             NaN
             NaN             NaN             NaN
             NaN             NaN             NaN
             NaN             NaN             NaN
             NaN             NaN             NaN
             NaN             NaN             NaN
             NaN             NaN             NaN
             NaN             NaN             NaN
             NaN             NaN             NaN
             NaN             NaN             NaN
             NaN             NaN             NaN
             NaN             NaN             NaN
             NaN             NaN             NaN
             NaN             NaN             NaN
             NaN             NaN             NaN
             NaN             NaN             NaN
             NaN             NaN             NaN
             NaN             NaN             NaN
             NaN             NaN             NaN
             NaN             NaN             NaN
             NaN             NaN             NaN
             NaN             NaN             NaN
             NaN             NaN             NaN
             NaN             NaN             NaN
             NaN             NaN             NaN
