Al   Hf   N                             
   1.00000000000000     
     9.4357208168381721   -0.0000035148786447    0.0000311397405664
    -4.7178573977075988    8.1733143790465359   -0.0004516579211085
    -0.0000325846506418   -0.0007485802051732   10.0788863510033888
   Al   Hf   N 
    35     1    36
Direct
  0.2213129651963328  0.1094784228175101  0.3882936234179510
  0.1093676913844703  0.2196114506328541  0.1390570745583517
  0.8876999602568389  0.1109598381158960  0.8907931959589703
  0.7774946631182615  0.2218418116567591  0.6393213651760732
  0.5548473655979222  0.1117609549700873  0.3920842322008937
  0.4433913219170407  0.2196114629803958  0.1390570743199220
  0.2219165456044720  0.1106855249431007  0.8902387485131129
  0.1159079815772373  0.2232192304610479  0.6426106817757500
  0.8900611055439924  0.1117609533110340  0.3920842242802962
  0.7775767449911442  0.2220059255351146  0.1410967214412153
  0.5564074453307271  0.1109598780059855  0.8907931817684798
  0.4404587222247613  0.2232192286142549  0.6426106787129982
  0.2137257527115963  0.4413081641876460  0.3811122901127248
  0.1096244351788016  0.5568481759314210  0.1385335714852332
  0.8881544317849972  0.4431613083038428  0.8891785573101814
  0.7835460455801311  0.5556824910169880  0.6393428186675436
  0.5607298862955119  0.4413081489152617  0.3811122944629588
  0.4446946029550105  0.5562416997841595  0.1418484230677706
  0.2199117278098655  0.4420713417221336  0.8958751004376992
  0.1052839088186985  0.5556824650549430  0.6393428137163184
  0.8890279435114010  0.4449083832008398  0.3897725647143417
  0.7803712414241986  0.5568481520644184  0.1385335766686282
  0.5553071719629514  0.4420713864538968  0.8958750998155907
  0.2216658946748353  0.7779463039274930  0.3897016462455412
  0.1107160364165551  0.8882845156508310  0.1391639681628476
  0.8886737766988730  0.7780240431360284  0.8892373711619470
  0.7822253546991931  0.8947208014159784  0.6407178052814686
  0.5587387576527263  0.7843300136345377  0.3873962995443492
  0.4437715571260838  0.8901443793617787  0.1411602160397294
  0.2224978519957688  0.7780240369264746  0.8892373659056929
  0.1106490044683426  0.8881504726728835  0.6389946411726584
  0.8894279403570380  0.7779462993912105  0.3897016469792547
  0.7795203457136708  0.8901443425191431  0.1411602327506500
  0.5577407749414078  0.7823339911044513  0.8964152503616418
  0.4456429475382322  0.8947208060244378  0.6407178081187439
  0.4374715216360130  0.5417955758146675  0.6341176205537238
  0.1096635565509345  0.2194120451163641  0.3278936462139583
  0.2215876497411458  0.1100277491219401  0.0802391086503320
  0.7775369773270384  0.2219263867598258  0.8303171472824857
  0.8921997646916608  0.1132481503646119  0.5822987214232924
  0.4428959989706200  0.2194120410398597  0.3278936479432843
  0.5564083764918948  0.1108364591235471  0.0810216887889297
  0.1091918469187476  0.2211688998663135  0.8346810965614821
  0.2195982249308983  0.1060489592884579  0.5773946491627697
  0.7777201555160502  0.2222928008083613  0.3320771788429653
  0.8875756134472965  0.1108364216205899  0.0810216999576241
  0.4451246076244004  0.2211689360541271  0.8346810874381276
  0.5541958843934083  0.1132481623683788  0.5822987316530259
  0.1090687627637905  0.5577670541656232  0.3269956506324405
  0.2211459501482693  0.4440654583341086  0.0856165341504536
  0.7762553277393067  0.5547760545721445  0.8306217616092155
  0.8886410971255430  0.4441347280485601  0.5801564529973930
  0.4443130104180142  0.5554785325423524  0.3376291442005197
  0.5560670222913231  0.4440654671460251  0.0856165318053925
  0.1116682728714053  0.5547760434143996  0.8306217556896272
  0.1948588941256943  0.4353535447392431  0.5675896496759876
  0.7818457853487644  0.5577670441600802  0.3269956513452854
  0.8883427233447421  0.4435379230006902  0.0790191078086622
  0.4461587154974467  0.5591698982250861  0.8484279435837294
  0.5736421301388219  0.4353535570205977  0.5675896576901280
  0.1104877263007964  0.8878279181563116  0.3292660358720170
  0.2224938964249930  0.7782668596003361  0.0793647180745225
  0.7771437625737931  0.8888869053430781  0.8316499102878723
  0.8879874640260681  0.7773654100930472  0.5810381749162801
  0.4432829964846476  0.8901521115684616  0.3307067539939368
  0.5563973174336425  0.7796470956477393  0.0863941358838929
  0.1107861930163025  0.8884247980893250  0.8297287306815662
  0.2225254581888336  0.7773653960446580  0.5810381740295014
  0.7800166395013903  0.8901521015496172  0.3307067679080689
  0.8889205104219968  0.7782668457572726  0.0793647248877747
  0.4448907211338096  0.8888869246766689  0.8316499104287445
  0.5651875579977883  0.7972276194262946  0.5768288668522743
 
             NaN             NaN             NaN
             NaN             NaN             NaN
             NaN             NaN             NaN
             NaN             NaN             NaN
             NaN             NaN             NaN
             NaN             NaN             NaN
             NaN             NaN             NaN
             NaN             NaN             NaN
             NaN             NaN             NaN
             NaN             NaN             NaN
             NaN             NaN             NaN
             NaN             NaN             NaN
             NaN             NaN             NaN
             NaN             NaN             NaN
             NaN             NaN             NaN
             NaN             NaN             NaN
             NaN             NaN             NaN
             NaN             NaN             NaN
             NaN             NaN             NaN
             NaN             NaN             NaN
             NaN             NaN             NaN
             NaN             NaN             NaN
             NaN             NaN             NaN
             NaN             NaN             NaN
             NaN             NaN             NaN
             NaN             NaN             NaN
             NaN             NaN             NaN
             NaN             NaN             NaN
             NaN             NaN             NaN
             NaN             NaN             NaN
             NaN             NaN             NaN
             NaN             NaN             NaN
             NaN             NaN             NaN
             NaN             NaN             NaN
             NaN             NaN             NaN
             NaN             NaN             NaN
             NaN             NaN             NaN
             NaN             NaN             NaN
             NaN             NaN             NaN
             NaN             NaN             NaN
             NaN             NaN             NaN
             NaN             NaN             NaN
             NaN             NaN             NaN
             NaN             NaN             NaN
             NaN             NaN             NaN
             NaN             NaN             NaN
             NaN             NaN             NaN
             NaN             NaN             NaN
             NaN             NaN             NaN
             NaN             NaN             NaN
             NaN             NaN             NaN
             NaN             NaN             NaN
             NaN             NaN             NaN
             NaN             NaN             NaN
             NaN             NaN             NaN
             NaN             NaN             NaN
             NaN             NaN             NaN
             NaN             NaN             NaN
             NaN             NaN             NaN
             NaN             NaN             NaN
             NaN             NaN             NaN
             NaN             NaN             NaN
             NaN             NaN             NaN
             NaN             NaN             NaN
             NaN             NaN             NaN
             NaN             NaN             NaN
             NaN             NaN             NaN
             NaN             NaN             NaN
             NaN             NaN             NaN
             NaN             NaN             NaN
             NaN             NaN             NaN
             NaN             NaN             NaN
