Al   Hf   N                             
   1.00000000000000     
     9.7823944996596257   -0.0000042788410615    0.0000287330555191
    -4.8911867998431999    8.4608282585255328   -0.0001951047959371
    -0.0000069410423393    0.0059663417601708    9.1061077712046004
   Al   Hf   N 
    35     1    36
Direct
  0.2213762521984606  0.1095895056754443  0.3757978478956758
  0.1085515119607052  0.2172581488897194  0.1215888143012975
  0.8875114842222587  0.1116530115225700  0.8717722846888094
  0.7779597548478066  0.2227595326186673  0.6210498813886645
  0.5541297021707408  0.1112412497680282  0.3773916459885882
  0.4418706558204519  0.2172629019574828  0.1215875241529361
  0.2221791165554166  0.1111948082636474  0.8707587901490541
  0.1155943903115713  0.2248198499807614  0.6264136458141749
  0.8902743716164707  0.1112404311127833  0.3773998180049745
  0.7771987582974589  0.2212313569100459  0.1264561460327798
  0.5573046625753975  0.1116526199614469  0.8717789860021341
  0.4423887173226646  0.2248167517658857  0.6264129262133054
  0.2098173995704826  0.4400863791546854  0.3598383918867327
  0.1088484532570391  0.5579706514555127  0.1195467609854788
  0.8872960166826331  0.4414286042940319  0.8744028509314461
  0.7851756275534143  0.5572033846485454  0.6275992002399846
  0.5634310285349642  0.4400872212440206  0.3598485779948248
  0.4446621946400384  0.5561580580633958  0.1227310298300708
  0.2196118353347316  0.4418868501090714  0.8816862987282548
  0.1051891104024349  0.5571998945949659  0.6275990590158571
  0.8898797401256431  0.4465972717710116  0.3737763192106627
  0.7822809564062823  0.5579674318592964  0.1195467469620155
  0.5554389774706010  0.4418874756627247  0.8816765591223259
  0.2211461561224155  0.7776987691391426  0.3731031166696752
  0.1115021858672165  0.8898383818608977  0.1232340891574779
  0.8894419664149922  0.7794589028991297  0.8743971879016996
  0.7807618242700798  0.8927533645643990  0.6244013793761525
  0.5590994214345457  0.7850348862232437  0.3677571360972252
  0.4439093615286680  0.8912839500388827  0.1242502118535569
  0.2231811802112205  0.7794589334368851  0.8743905359092921
  0.1095906333967704  0.8860204244455190  0.6241724137882159
  0.8897154501848874  0.7776991831347431  0.3730973675903755
  0.7805378999534369  0.8912865179598128  0.1242492651369886
  0.5575963689629759  0.7820299326514402  0.8790943880412243
  0.4451576980379670  0.8927567142583115  0.6243989114092798
  0.4363274773412797  0.5395000986472667  0.6072336937016161
  0.1092828807411834  0.2178019092625618  0.3321404797598504
  0.2215367299676885  0.1099098395873170  0.0821480878019543
  0.7776835324486839  0.2222065376430464  0.8325892485881354
  0.8917400379714735  0.1121789155640087  0.5881625264626749
  0.4416827041175537  0.2178061694367983  0.3321404993559653
  0.5572848853267161  0.1114508179886187  0.0839933929355752
  0.1098622394362820  0.2224108613043896  0.8395044311198134
  0.2189134441126015  0.1046632747323173  0.5868807168256041
  0.7777396520015287  0.2223131320248228  0.3391172462087013
  0.8873290449555071  0.1114507483319258  0.0839866744623237
  0.4457117184433841  0.2224081668961162  0.8395037703394834
  0.5536025251184071  0.1121798122754925  0.5881545228249010
  0.1081913120908737  0.5588228374863675  0.3282350120489639
  0.2209489318115914  0.4437095604500811  0.0935218348355846
  0.7772450677341070  0.5554891379694240  0.8402593211218488
  0.8896980193856905  0.4462343256076053  0.5861133180312663
  0.4433846902675853  0.5536044822320036  0.3436391813912110
  0.5559238522545726  0.4437101954581735  0.0935125197660156
  0.1114080310917842  0.5554860996422448  0.8402594298627903
  0.1911064720382569  0.4363056945765891  0.5725751893621691
  0.7837899588526227  0.5588198449872834  0.3282361787392460
  0.8874078900910405  0.4416532017932155  0.0836755211586109
  0.4457227286000318  0.5582860579678837  0.8508638881514159
  0.5783596572336762  0.4363080213254307  0.5725864394819666
  0.1109212843223659  0.8886773274082245  0.3345119108667802
  0.2231194169186139  0.7800989580702762  0.0843490412778607
  0.7772298642346556  0.8887172198599558  0.8368628004639049
  0.8880759361127062  0.7770380748001529  0.5861499176444198
  0.4429015509905128  0.8903230259347268  0.3351317953755881
  0.5564166043101579  0.7796701226352099  0.0927483232962985
  0.1104915676724403  0.8878215108919889  0.8352225996683273
  0.2221250412048619  0.7770372401598777  0.5861554342701396
  0.7805847154260661  0.8903255305439046  0.3351309110772078
  0.8901432486547876  0.7800985954916939  0.0843553398231833
  0.4446533865838731  0.8887200559133390  0.8368609830897000
  0.5640423006852586  0.7949207379985594  0.5823121281748485
 
             NaN             NaN             NaN
             NaN             NaN             NaN
             NaN             NaN             NaN
             NaN             NaN             NaN
             NaN             NaN             NaN
             NaN             NaN             NaN
             NaN             NaN             NaN
             NaN             NaN             NaN
             NaN             NaN             NaN
             NaN             NaN             NaN
             NaN             NaN             NaN
             NaN             NaN             NaN
             NaN             NaN             NaN
             NaN             NaN             NaN
             NaN             NaN             NaN
             NaN             NaN             NaN
             NaN             NaN             NaN
             NaN             NaN             NaN
             NaN             NaN             NaN
             NaN             NaN             NaN
             NaN             NaN             NaN
             NaN             NaN             NaN
             NaN             NaN             NaN
             NaN             NaN             NaN
             NaN             NaN             NaN
             NaN             NaN             NaN
             NaN             NaN             NaN
             NaN             NaN             NaN
             NaN             NaN             NaN
             NaN             NaN             NaN
             NaN             NaN             NaN
             NaN             NaN             NaN
             NaN             NaN             NaN
             NaN             NaN             NaN
             NaN             NaN             NaN
             NaN             NaN             NaN
             NaN             NaN             NaN
             NaN             NaN             NaN
             NaN             NaN             NaN
             NaN             NaN             NaN
             NaN             NaN             NaN
             NaN             NaN             NaN
             NaN             NaN             NaN
             NaN             NaN             NaN
             NaN             NaN             NaN
             NaN             NaN             NaN
             NaN             NaN             NaN
             NaN             NaN             NaN
             NaN             NaN             NaN
             NaN             NaN             NaN
             NaN             NaN             NaN
             NaN             NaN             NaN
             NaN             NaN             NaN
             NaN             NaN             NaN
             NaN             NaN             NaN
             NaN             NaN             NaN
             NaN             NaN             NaN
             NaN             NaN             NaN
             NaN             NaN             NaN
             NaN             NaN             NaN
             NaN             NaN             NaN
             NaN             NaN             NaN
             NaN             NaN             NaN
             NaN             NaN             NaN
             NaN             NaN             NaN
             NaN             NaN             NaN
             NaN             NaN             NaN
             NaN             NaN             NaN
             NaN             NaN             NaN
             NaN             NaN             NaN
             NaN             NaN             NaN
             NaN             NaN             NaN
