Al   Hf   N                             
   1.00000000000000     
     9.4355454061049837   -0.0000028096825677    0.0000333612959947
    -4.7177701391584437    8.1731928496759050   -0.0006884761904974
    -0.0000351743410864   -0.0010489224218880   10.0792811953234569
   Al   Hf   N 
    35     1    36
Direct
  0.2212792187039412  0.1094593277481053  0.4066878772014419
  0.1093303220518322  0.2195836650427623  0.1574591223570394
  0.8876620525859451  0.1109268111236830  0.9091799069737974
  0.7774633994533957  0.2218277362752659  0.6577149963097852
  0.5548186354446827  0.1117519779121707  0.4104715571832216
  0.4433525039069153  0.2195836822368165  0.1574591165630039
  0.2218755938209043  0.1106520722862641  0.9086326862290335
  0.1158925653155904  0.2232140736653037  0.6609963885559011
  0.8900324570746818  0.1117519702834073  0.4104715522866229
  0.7775388099885987  0.2219784463840213  0.1594798369413795
  0.5563638794713412  0.1109268555734744  0.9091798939869662
  0.4404205232943283  0.2232140769047746  0.6609963924943258
  0.2137206374669773  0.4413076029101006  0.3995084750835787
  0.1095854810253485  0.5568194055743163  0.1569355887359265
  0.8881160176017389  0.4431329445800998  0.9075703133175494
  0.7835117453674627  0.5556670758476514  0.6577292064729860
  0.5606860117304890  0.4413075855172863  0.3995084816344630
  0.4446583828779396  0.5562176861633930  0.1602175812391025
  0.2198558353680440  0.4420290121190291  0.9142824896845383
  0.1052543213204729  0.5556670526412120  0.6577292088191058
  0.8889943967309719  0.4448897027697782  0.4081632219435249
  0.7803329998247079  0.5568193732568645  0.1569356039522845
  0.5552722706433428  0.4420290665862794  0.9142824898196409
  0.2216333552983230  0.7779318756480649  0.4080934639491218
  0.1106768079892220  0.8882544662208289  0.1575533367443356
  0.8886294896463127  0.7779892980451777  0.9076282440284089
  0.7821987353784934  0.8947117141500200  0.6590970450046001
  0.5587026521305702  0.7843062167222214  0.4057785105046747
  0.4437327942302147  0.8901216938216550  0.1595546258935840
  0.2224589561642318  0.7779893007425613  0.9076282395645592
  0.1106157326849058  0.8881323788604334  0.6573904346696438
  0.8893976347425578  0.7779318730078657  0.4080934683057720
  0.7794880103844903  0.8901216459057011  0.1595546378257140
  0.5577092722275623  0.7823194387509602  0.9148226147950780
  0.4456120297561341  0.8947117251447168  0.6590970406047276
  0.4374515275885145  0.5418040616764728  0.6525771561143188
  0.1096372650385078  0.2194010730488216  0.3462881473181696
  0.2215480884419136  0.1099970341295275  0.0986283529025442
  0.7774964086541232  0.2218937097235525  0.8487047568524204
  0.8921752239436103  0.1132419320105100  0.6006816317415087
  0.4428629244575575  0.2194010703874483  0.3462881439448253
  0.5563654782928253  0.1108063846354170  0.0994045343501355
  0.1091517901784940  0.2211337757994016  0.8530640928202899
  0.2195608157207687  0.1060225825052825  0.5957794134553680
  0.7776871610317357  0.2222752059108331  0.3504546751739994
  0.8875400381385958  0.1108063364992375  0.0994045430047663
  0.4450810816926136  0.2211338126019484  0.8530640927077400
  0.5541657554264319  0.1132419492810115  0.6006816373837438
  0.1090378018344467  0.5577468480082501  0.3453904895347932
  0.2210960165134139  0.4440290733691299  0.1040089516458806
  0.7762108968995776  0.5547404879079565  0.8490036316191478
  0.8886069773306176  0.4441149558094324  0.5985405131815114
  0.4442852631918441  0.5554714719819884  0.3559775675357599
  0.5560321495780798  0.4440290931591733  0.1040089522564713
  0.1116286668953492  0.5547404785673251  0.8490036322856298
  0.1948617670488275  0.4353589904054331  0.5859806565781938
  0.7818081099123333  0.5577468352322938  0.3453905041916698
  0.8883048229283617  0.4435105444325131  0.0974060332697348
  0.4461179007654295  0.5591367461453345  0.8668689515561141
  0.5735962317025738  0.4353590008219115  0.5859806658409710
  0.1104535209876758  0.8878079274757056  0.3476481857015301
  0.2224545195920058  0.7782321132001115  0.0977504324195166
  0.7771002501993252  0.8888518546102802  0.8500268843170034
  0.8879566761521573  0.7773490577493050  0.5994228698806410
  0.4432492797943581  0.8901380716904654  0.3490936654880272
  0.5563656485512354  0.7796321691759260  0.1047848018662947
  0.1107435300903603  0.8883879229531217  0.8481180866838187
  0.2224914397099553  0.7773490457414667  0.5994228672336916
  0.7799878986851496  0.8901380593987511  0.3490936734757426
  0.8888767312204848  0.7782320881706823  0.0977504396958153
  0.4448507295828108  0.8888518762198387  0.8500268799617174
  0.5651521594826150  0.7972052667110816  0.5952045510050965
 
             NaN             NaN             NaN
             NaN             NaN             NaN
             NaN             NaN             NaN
             NaN             NaN             NaN
             NaN             NaN             NaN
             NaN             NaN             NaN
             NaN             NaN             NaN
             NaN             NaN             NaN
             NaN             NaN             NaN
             NaN             NaN             NaN
             NaN             NaN             NaN
             NaN             NaN             NaN
             NaN             NaN             NaN
             NaN             NaN             NaN
             NaN             NaN             NaN
             NaN             NaN             NaN
             NaN             NaN             NaN
             NaN             NaN             NaN
             NaN             NaN             NaN
             NaN             NaN             NaN
             NaN             NaN             NaN
             NaN             NaN             NaN
             NaN             NaN             NaN
             NaN             NaN             NaN
             NaN             NaN             NaN
             NaN             NaN             NaN
             NaN             NaN             NaN
             NaN             NaN             NaN
             NaN             NaN             NaN
             NaN             NaN             NaN
             NaN             NaN             NaN
             NaN             NaN             NaN
             NaN             NaN             NaN
             NaN             NaN             NaN
             NaN             NaN             NaN
             NaN             NaN             NaN
             NaN             NaN             NaN
             NaN             NaN             NaN
             NaN             NaN             NaN
             NaN             NaN             NaN
             NaN             NaN             NaN
             NaN             NaN             NaN
             NaN             NaN             NaN
             NaN             NaN             NaN
             NaN             NaN             NaN
             NaN             NaN             NaN
             NaN             NaN             NaN
             NaN             NaN             NaN
             NaN             NaN             NaN
             NaN             NaN             NaN
             NaN             NaN             NaN
             NaN             NaN             NaN
             NaN             NaN             NaN
             NaN             NaN             NaN
             NaN             NaN             NaN
             NaN             NaN             NaN
             NaN             NaN             NaN
             NaN             NaN             NaN
             NaN             NaN             NaN
             NaN             NaN             NaN
             NaN             NaN             NaN
             NaN             NaN             NaN
             NaN             NaN             NaN
             NaN             NaN             NaN
             NaN             NaN             NaN
             NaN             NaN             NaN
             NaN             NaN             NaN
             NaN             NaN             NaN
             NaN             NaN             NaN
             NaN             NaN             NaN
             NaN             NaN             NaN
             NaN             NaN             NaN
