Al   Hf   N                             
   1.00000000000000     
     9.4361050756492801   -0.0000062181302733    0.0000226237780913
    -4.7180474051342642    8.1736005121582487    0.0004561454448825
    -0.0000230242926852    0.0003766518443670   10.0779711743704308
   Al   Hf   N 
    35     1    36
Direct
  0.2219389203505315  0.1107047774998904  0.3206638032572826
  0.1093881225852584  0.2196260021630678  0.0718524439657244
  0.8900746874347618  0.1117632267714725  0.8188150189910388
  0.7775108800434865  0.2218486470565608  0.5715810652465549
  0.5564324272170040  0.1109804703000421  0.3201043507108281
  0.4434109890090809  0.2196259979043234  0.0718524524602557
  0.2213320042643474  0.1094908641677037  0.8226035339567019
  0.1159051698323807  0.2232176432177084  0.5682843762081902
  0.8877210953757526  0.1109804532161291  0.3201043392888749
  0.7775969387994834  0.2220207627182020  0.0697976903684392
  0.5548616866481808  0.1117632176495960  0.8188150128412630
  0.4404855560049228  0.2232176303650206  0.5682843802497075
  0.2199544282353401  0.4421022335673470  0.3150414828892423
  0.1096454802216442  0.5568646566298128  0.0723748416996060
  0.8890469235073866  0.4449207084813693  0.8211230966137109
  0.7835665362007731  0.5556914896343841  0.5715458223893819
  0.5553208172987780  0.4421022441822657  0.3150414878966075
  0.4447135153919248  0.5562539694168720  0.0690244841125391
  0.2137091520012362  0.4412995811075788  0.8297909645089945
  0.1052980388450706  0.5556914795812347  0.5715458127491004
  0.8881743295483844  0.4431756319025979  0.3217180860130995
  0.7803922242078514  0.5568646345479493  0.0723748432271876
  0.5607635412876206  0.4412995526832688  0.8297909715962959
  0.2225186491609890  0.7780451685847751  0.3216581165384440
  0.1107378649173114  0.8883026320994816  0.0717295605331643
  0.8894439062773287  0.7779546426169190  0.8211957334279418
  0.7822372587177000  0.8947237299167980  0.5701695645075517
  0.5577534562373643  0.7823338678972931  0.3145019911726479
  0.4437923850649312  0.8901552004700264  0.0697451514232768
  0.2216838937415062  0.7779546442597223  0.8211957313547558
  0.1106671021846495  0.8881610794098123  0.5719048775209998
  0.8886995852207846  0.7780451636622487  0.3216581184839455
  0.7795358986461309  0.8901551774998708  0.0697451446649424
  0.5587632233728499  0.7843533012154751  0.8234933917911746
  0.4456595665533456  0.8947237163896915  0.5701695677221821
  0.4374765334304769  0.5417799360518671  0.5768714330870210
  0.1092150443604609  0.2211906431258939  0.3762043846555940
  0.2216083166538425  0.1100435611407988  0.1306514744756200
  0.7777381811270061  0.2223032284668207  0.8788039677511748
  0.8922083401735748  0.1132463004551880  0.6285881531954658
  0.4451486445589197  0.2211906426378434  0.3762043866256803
  0.5564326404483921  0.1108536130992235  0.1298644544335161
  0.1096748373031531  0.2194137959489453  0.8830014142120461
  0.2196209759331325  0.1060688669380667  0.6334860976674790
  0.7775589440969810  0.2219448244977187  0.3805724191240358
  0.8875940504369098  0.1108535951418759  0.1298644446912078
  0.4429120849669914  0.2194137755727539  0.8830014250517308
  0.5542110521994772  0.1132462930817653  0.6285881440588881
  0.1116889380591033  0.5547970812079299  0.3802565460195950
  0.2211800718952475  0.4440893053578989  0.1252743871736754
  0.7818701842117690  0.5577800571014393  0.8838991342015419
  0.8886606150904939  0.4441481512966732  0.6307259589899772
  0.4461821007989144  0.5591912036192781  0.3625261579027921
  0.5560822695604060  0.4440893006366906  0.1252743946696810
  0.1090829996619718  0.5577800637456534  0.8838991269334500
  0.1948316118399731  0.4353366346972436  0.6433016700862595
  0.7762811499966347  0.5547970778963105  0.3802565538850260
  0.8883621943971178  0.4435513455427227  0.1318673037754579
  0.4443248712357715  0.5554766141295033  0.8732072686144079
  0.5736781099981343  0.4353366063931645  0.6433016871583987
  0.1108093596962618  0.8884456614078147  0.3811588325725808
  0.2225140991579551  0.7782879009994730  0.1315197835076063
  0.7800309820825078  0.8901581755195238  0.8801835798045445
  0.8880030563988726  0.7773741039190796  0.6298455823718143
  0.4449113799806810  0.8889081192142427  0.3792277692331538
  0.5564100681992556  0.7796470620736784  0.1244968177152757
  0.1105069387415227  0.8878407307090015  0.8816136987640348
  0.2225441454230506  0.7773740942557339  0.6298455832679295
  0.7771697876241461  0.8889081122782159  0.3792277642516808
  0.8889468683048847  0.7782878861119897  0.1315197846480345
  0.4433003406697367  0.8901581697910217  0.8801835848252537
  0.5652112667856599  0.7972494305382938  0.6340472691728252
 
             NaN             NaN             NaN
             NaN             NaN             NaN
             NaN             NaN             NaN
             NaN             NaN             NaN
             NaN             NaN             NaN
             NaN             NaN             NaN
             NaN             NaN             NaN
             NaN             NaN             NaN
             NaN             NaN             NaN
             NaN             NaN             NaN
             NaN             NaN             NaN
             NaN             NaN             NaN
             NaN             NaN             NaN
             NaN             NaN             NaN
             NaN             NaN             NaN
             NaN             NaN             NaN
             NaN             NaN             NaN
             NaN             NaN             NaN
             NaN             NaN             NaN
             NaN             NaN             NaN
             NaN             NaN             NaN
             NaN             NaN             NaN
             NaN             NaN             NaN
             NaN             NaN             NaN
             NaN             NaN             NaN
             NaN             NaN             NaN
             NaN             NaN             NaN
             NaN             NaN             NaN
             NaN             NaN             NaN
             NaN             NaN             NaN
             NaN             NaN             NaN
             NaN             NaN             NaN
             NaN             NaN             NaN
             NaN             NaN             NaN
             NaN             NaN             NaN
             NaN             NaN             NaN
             NaN             NaN             NaN
             NaN             NaN             NaN
             NaN             NaN             NaN
             NaN             NaN             NaN
             NaN             NaN             NaN
             NaN             NaN             NaN
             NaN             NaN             NaN
             NaN             NaN             NaN
             NaN             NaN             NaN
             NaN             NaN             NaN
             NaN             NaN             NaN
             NaN             NaN             NaN
             NaN             NaN             NaN
             NaN             NaN             NaN
             NaN             NaN             NaN
             NaN             NaN             NaN
             NaN             NaN             NaN
             NaN             NaN             NaN
             NaN             NaN             NaN
             NaN             NaN             NaN
             NaN             NaN             NaN
             NaN             NaN             NaN
             NaN             NaN             NaN
             NaN             NaN             NaN
             NaN             NaN             NaN
             NaN             NaN             NaN
             NaN             NaN             NaN
             NaN             NaN             NaN
             NaN             NaN             NaN
             NaN             NaN             NaN
             NaN             NaN             NaN
             NaN             NaN             NaN
             NaN             NaN             NaN
             NaN             NaN             NaN
             NaN             NaN             NaN
             NaN             NaN             NaN
