Al   Hf   N                             
   1.00000000000000     
     9.4355419669245659   -0.0000026921498882    0.0000337315552328
    -4.7177685051557026    8.1731922761019025   -0.0007279459020623
    -0.0000357512312607   -0.0010344481483897   10.0792936218814795
   Al   Hf   N 
    35     1    36
Direct
  0.2212744487225464  0.1094568664144262  0.4093797374739481
  0.1093247495107477  0.2195797143704894  0.1601496794218491
  0.8876559063195941  0.1109229415380426  0.9118703626144367
  0.7774587168586748  0.2218254610828509  0.6604045567181700
  0.5548131301899559  0.1117496082282941  0.4131648709073659
  0.4433470408512648  0.2195797376050095  0.1601496731136294
  0.2218698140532211  0.1106475877873550  0.9113230292339622
  0.1158889045109461  0.2232121618382905  0.6636919157917305
  0.8900285063843114  0.1117496028466505  0.4131648599647662
  0.7775333652250680  0.2219746569362187  0.1621711009953302
  0.5563590769634104  0.1109229903960980  0.9118703471790965
  0.4404151897495368  0.2232121790055217  0.6636919228763460
  0.2137161179406704  0.4413044599440425  0.4021999046168361
  0.1095801133570831  0.5568159922835250  0.1596263335159449
  0.8881107563270376  0.4431294970737696  0.9102590868894751
  0.7835065458518855  0.5556641184962601  0.6604171415957580
  0.5606803075672744  0.4413044480061927  0.4021999146370163
  0.4446535102244837  0.5562150284309268  0.1629123680630329
  0.2198504922154214  0.4420259571361811  0.9169761642609942
  0.1052494733548670  0.5556640790746314  0.6604171371447833
  0.8889893922260654  0.4448867803531300  0.4108515736387801
  0.7803278657709356  0.5568159638810712  0.1596263473524999
  0.5552674762781962  0.4420260210695659  0.9169761609436762
  0.2216285142789900  0.7779294150828377  0.4107817769963731
  0.1106715490291279  0.8882510247614306  0.1602417320662681
  0.8886238280269438  0.7779851093324552  0.9103168975911515
  0.7821942658063392  0.8947088700211694  0.6617874914226292
  0.5586978778575045  0.7843037471337482  0.4084722701772492
  0.4437278734617038  0.8901185796495383  0.1622455595922858
  0.2224533463009166  0.7779851027631608  0.9103168925069767
  0.1106106054764382  0.8881291933458400  0.6600788107311359
  0.8893929457527250  0.7779294179616940  0.4107817821958406
  0.7794827314519495  0.8901185318132860  0.1622455719079881
  0.5577040691174773  0.7823161229120288  0.9175145556289905
  0.4456065661995154  0.8947088817035791  0.6617874883446078
  0.4374467069243195  0.5418015081358973  0.6552722352037463
  0.1096322804449201  0.2193979510433479  0.3489792480614540
  0.2215426317573232  0.1099932031404762  0.1013186350500845
  0.7774910944109266  0.2218901610564146  0.8513946196347604
  0.8921714716808964  0.1132396941675964  0.6033749013590040
  0.4428577041580226  0.2193979543146654  0.3489792442931190
  0.5563603883108712  0.1108026890831795  0.1020953940057083
  0.1091464353502190  0.2211304031145431  0.8557582850340495
  0.2195561463740532  0.1060203298073432  0.5984717663034900
  0.7776817625363606  0.2222715023548929  0.3531468526090364
  0.8875343323245630  0.1108026475140420  0.1020954081171013
  0.4450759887288527  0.2211304493520529  0.8557582860606132
  0.5541601741829751  0.1132397128145186  0.6033749127450534
  0.1090330749864137  0.5577436795345463  0.3480810839135700
  0.2210909727529966  0.4440257144154813  0.1067019745940812
  0.7762047811228143  0.5547363233419489  0.8516928136265776
  0.8886019238541394  0.4441119421024240  0.6012292345341592
  0.4442806439301918  0.5554693168241869  0.3586703732095557
  0.5560267460272925  0.4440257372887046  0.1067019682161217
  0.1116235386672031  0.5547363080298879  0.8516928073763594
  0.1948582091617652  0.4353558073048589  0.5886723774684341
  0.7818025847035699  0.5577436698862499  0.3480810987120790
  0.8882993933845782  0.4435067741973953  0.1000960794294485
  0.4461124602289956  0.5591329648008667  0.8695635389411009
  0.5735895353920029  0.4353558348272557  0.5886723921101051
  0.1104487854719309  0.8878055246142651  0.3503374476635415
  0.2224493475797615  0.7782282133474396  0.1004400707008344
  0.7770945594660930  0.8888478789972538  0.8527176060100743
  0.8879516103637144  0.7773461642123465  0.6021119198664024
  0.4432449532794109  0.8901356737652364  0.3517854046492701
  0.5563603871738323  0.7796287303791871  0.1074766890205652
  0.1107379585573938  0.8883838529607360  0.8508071482313824
  0.2224865323376122  0.7773461351430129  0.6021119121388523
  0.7799827475659242  0.8901356615018940  0.3517854135059864
  0.8888709264572441  0.7782281967767375  0.1004400776093064
  0.4448453578162699  0.8888479049061999  0.8527176014477433
  0.5651469568639982  0.7972019573496425  0.5978972273283816
 
             NaN             NaN             NaN
             NaN             NaN             NaN
             NaN             NaN             NaN
             NaN             NaN             NaN
             NaN             NaN             NaN
             NaN             NaN             NaN
             NaN             NaN             NaN
             NaN             NaN             NaN
             NaN             NaN             NaN
             NaN             NaN             NaN
             NaN             NaN             NaN
             NaN             NaN             NaN
             NaN             NaN             NaN
             NaN             NaN             NaN
             NaN             NaN             NaN
             NaN             NaN             NaN
             NaN             NaN             NaN
             NaN             NaN             NaN
             NaN             NaN             NaN
             NaN             NaN             NaN
             NaN             NaN             NaN
             NaN             NaN             NaN
             NaN             NaN             NaN
             NaN             NaN             NaN
             NaN             NaN             NaN
             NaN             NaN             NaN
             NaN             NaN             NaN
             NaN             NaN             NaN
             NaN             NaN             NaN
             NaN             NaN             NaN
             NaN             NaN             NaN
             NaN             NaN             NaN
             NaN             NaN             NaN
             NaN             NaN             NaN
             NaN             NaN             NaN
             NaN             NaN             NaN
             NaN             NaN             NaN
             NaN             NaN             NaN
             NaN             NaN             NaN
             NaN             NaN             NaN
             NaN             NaN             NaN
             NaN             NaN             NaN
             NaN             NaN             NaN
             NaN             NaN             NaN
             NaN             NaN             NaN
             NaN             NaN             NaN
             NaN             NaN             NaN
             NaN             NaN             NaN
             NaN             NaN             NaN
             NaN             NaN             NaN
             NaN             NaN             NaN
             NaN             NaN             NaN
             NaN             NaN             NaN
             NaN             NaN             NaN
             NaN             NaN             NaN
             NaN             NaN             NaN
             NaN             NaN             NaN
             NaN             NaN             NaN
             NaN             NaN             NaN
             NaN             NaN             NaN
             NaN             NaN             NaN
             NaN             NaN             NaN
             NaN             NaN             NaN
             NaN             NaN             NaN
             NaN             NaN             NaN
             NaN             NaN             NaN
             NaN             NaN             NaN
             NaN             NaN             NaN
             NaN             NaN             NaN
             NaN             NaN             NaN
             NaN             NaN             NaN
             NaN             NaN             NaN
