Al   Hf   N                             
   1.00000000000000     
     9.4636708601128170   -0.0000036911776640    0.0000305843517093
    -4.7318301169225876    8.1950093276555780   -0.0003924533537613
    -0.0000252378449185    0.0054360576674087   10.0095496481875408
   Al   Hf   N 
    35     1    36
Direct
  0.2213866524322370  0.1096106109715862  0.3822723803403960
  0.1093753198488443  0.2195525901273996  0.1323915442000683
  0.8877496959332234  0.1112187809289082  0.8845101132307036
  0.7774790384341799  0.2217954864463394  0.6328864494908615
  0.5547178512182782  0.1115182906138017  0.3858726355890099
  0.4433401846176821  0.2195528438675893  0.1323915808619347
  0.2220111531690065  0.1108592950628449  0.8837813481597792
  0.1150809187927351  0.2229342421716467  0.6365971830673942
  0.8899631169608213  0.1115182372031285  0.3858729205157658
  0.7776076806050938  0.2220524299658919  0.1350360211377435
  0.5566319946822986  0.1112188671101819  0.8845102474337168
  0.4410160184143450  0.2229341949664772  0.6365970985715350
  0.2122286080543248  0.4405685002400048  0.3745340127121537
  0.1096518652575043  0.5570308857624227  0.1318730281502383
  0.8881445975293545  0.4431262291031146  0.8830184037979691
  0.7836546704298044  0.5556926514030138  0.6336074270705225
  0.5615024258473653  0.4405686311795378  0.3745344417997458
  0.4447118505684102  0.5562608515821665  0.1366662114023356
  0.2208999896965764  0.4427422925201157  0.8890670062883075
  0.1052003303977216  0.5556923802556852  0.6336072988370631
  0.8891201652162266  0.4450777944922208  0.3836924918781079
  0.7805416361393824  0.5570307691946610  0.1318730888546895
  0.5550053617295845  0.4427424512620277  0.8890667538686330
  0.2216727899652540  0.7779305315486269  0.3835499156940543
  0.1108320114521106  0.8885010522077792  0.1331296527193118
  0.8888914754655417  0.7782981795092283  0.8831109732654596
  0.7819812392974725  0.8944789739537526  0.6348998638226817
  0.5591020787420291  0.7850414849284704  0.3814571534845612
  0.4438236974483303  0.8901318700721319  0.1346719413205832
  0.2225697324246454  0.7782981234217416  0.8831106931204999
  0.1106883868803621  0.8882140388524604  0.6327765158065191
  0.8894204644463102  0.7779305694539502  0.3835497964908683
  0.7794709480608901  0.8901319085137089  0.1346719886942154
  0.5574821285573748  0.7818012900701348  0.8895157306933328
  0.4456605911273073  0.8944791523261202  0.6348997539558212
  0.4370239661235686  0.5408860240404039  0.6238163753976949
  0.1094141979812022  0.2190145142581912  0.3223046083453838
  0.2216117982229520  0.1100605802514849  0.0747533076962981
  0.7776189059734833  0.2220749940975537  0.8248584574939173
  0.8918887210807753  0.1128386299479516  0.5770468013599412
  0.4427631000560979  0.2190147826603237  0.3223046837733108
  0.5566128039311522  0.1109830671989727  0.0757038130337619
  0.1093681783126996  0.2214949523725096  0.8294957505027583
  0.2198823692773644  0.1066019218545122  0.5725770409697901
  0.7777389105005312  0.2223149996479208  0.3270555359100200
  0.8875330978531224  0.1109829884086935  0.0757036623459584
  0.4452897556014790  0.2214950336605810  0.8294956069041888
  0.5541126990854224  0.1128387320686670  0.5770465131850386
  0.1088840867260501  0.5579441733732153  0.3213558697001702
  0.2216954255549908  0.4444319107918488  0.0804050733099473
  0.7764399574519416  0.5549942717420393  0.8258010272583292
  0.8887668361368029  0.4443712688240780  0.5751013925441910
  0.4440780616241042  0.5549935581968555  0.3346088212683398
  0.5558993667761740  0.4444319875414067  0.0804048088561444
  0.1117172974328824  0.5549940820616754  0.8258009328408846
  0.1930045264695295  0.4343070887488807  0.5621102546967691
  0.7822224993448117  0.5579440749937348  0.3213559718363399
  0.8883152154323781  0.4434675823314365  0.0737380307639626
  0.4463226462114704  0.5594824401552430  0.8405741663853377
  0.5744650194796179  0.4343074360908403  0.5621107455952696
  0.1105704659025406  0.8879781196876095  0.3243007431416274
  0.2225304026542148  0.7785814866439651  0.0741619798158908
  0.7773697431750293  0.8891311226195384  0.8267223680077933
  0.8879401855983815  0.7773465193406608  0.5759057983638911
  0.4432308330516008  0.8900476437565317  0.3252972779324139
  0.5561744396266661  0.7791860014141747  0.0811189334657385
  0.1108920596404488  0.8886211470869227  0.8244390267555275
  0.2225691271564543  0.7773464076355978  0.5759059180512409
  0.7799795012454211  0.8900477001910119  0.3252973148953089
  0.8892140419515187  0.7785814940774216  0.0741622357323308
  0.4449244862593389  0.8891312717064963  0.8267222751478229
  0.5655113170900563  0.7978598229920664  0.5719743688011434
 
             NaN             NaN             NaN
             NaN             NaN             NaN
             NaN             NaN             NaN
             NaN             NaN             NaN
             NaN             NaN             NaN
             NaN             NaN             NaN
             NaN             NaN             NaN
             NaN             NaN             NaN
             NaN             NaN             NaN
             NaN             NaN             NaN
             NaN             NaN             NaN
             NaN             NaN             NaN
             NaN             NaN             NaN
             NaN             NaN             NaN
             NaN             NaN             NaN
             NaN             NaN             NaN
             NaN             NaN             NaN
             NaN             NaN             NaN
             NaN             NaN             NaN
             NaN             NaN             NaN
             NaN             NaN             NaN
             NaN             NaN             NaN
             NaN             NaN             NaN
             NaN             NaN             NaN
             NaN             NaN             NaN
             NaN             NaN             NaN
             NaN             NaN             NaN
             NaN             NaN             NaN
             NaN             NaN             NaN
             NaN             NaN             NaN
             NaN             NaN             NaN
             NaN             NaN             NaN
             NaN             NaN             NaN
             NaN             NaN             NaN
             NaN             NaN             NaN
             NaN             NaN             NaN
             NaN             NaN             NaN
             NaN             NaN             NaN
             NaN             NaN             NaN
             NaN             NaN             NaN
             NaN             NaN             NaN
             NaN             NaN             NaN
             NaN             NaN             NaN
             NaN             NaN             NaN
             NaN             NaN             NaN
             NaN             NaN             NaN
             NaN             NaN             NaN
             NaN             NaN             NaN
             NaN             NaN             NaN
             NaN             NaN             NaN
             NaN             NaN             NaN
             NaN             NaN             NaN
             NaN             NaN             NaN
             NaN             NaN             NaN
             NaN             NaN             NaN
             NaN             NaN             NaN
             NaN             NaN             NaN
             NaN             NaN             NaN
             NaN             NaN             NaN
             NaN             NaN             NaN
             NaN             NaN             NaN
             NaN             NaN             NaN
             NaN             NaN             NaN
             NaN             NaN             NaN
             NaN             NaN             NaN
             NaN             NaN             NaN
             NaN             NaN             NaN
             NaN             NaN             NaN
             NaN             NaN             NaN
             NaN             NaN             NaN
             NaN             NaN             NaN
             NaN             NaN             NaN
