Al   Hf   N                             
   1.00000000000000     
     9.4356417236924468   -0.0000063356629528    0.0000222535188533
    -4.7178156522299171    8.1732571387404302    0.0004956151564473
    -0.0000223110035958    0.0008043429052254   10.0790703201782978
   Al   Hf   N 
    35     1    36
Direct
  0.2219415601980046  0.1106995940492084  0.3166840042982102
  0.1093934500237239  0.2196260102406526  0.0678597506069636
  0.8900879075979162  0.1117801820820574  0.8148433788875025
  0.7775218072388839  0.2218600309360497  0.5676014818264221
  0.5564306708670017  0.1109730551432833  0.3161341703675831
  0.4434161255785156  0.2196260054569947  0.0678597581838716
  0.2213389975774049  0.1094943879149284  0.8186247630773593
  0.1159397421137740  0.2232401863489599  0.5643147641373716
  0.8877259011641243  0.1109730388819514  0.3161341629582921
  0.7776021499039345  0.2220207240720384  0.0658328861621342
  0.5548758874987314  0.1117801706180970  0.8148433763049283
  0.4404839988185003  0.2232401690065089  0.5643147691595232
  0.2199302679683015  0.4420813751446531  0.3110385015690369
  0.1096496000880265  0.5568626969823782  0.0683817432816625
  0.8890538998530744  0.4449241897004725  0.8171501572187054
  0.7835725787061776  0.5557004177508915  0.5675807054064492
  0.5553345761872066  0.4420813799361909  0.3110385083137004
  0.4447205328500843  0.5562575364968509  0.0650807605012247
  0.2137622942865107  0.4413309724547361  0.8258050909025414
  0.1053114025572555  0.5557004127997516  0.5675806937308892
  0.8881802371923300  0.4431769885545762  0.3177424631164101
  0.7803966071598936  0.5568626744958181  0.0683817438783194
  0.5607522623254368  0.4413309423400023  0.8258050969606572
  0.2225229737470116  0.7780366728872607  0.3176843200272756
  0.1107415680892530  0.8882995746847513  0.0677584036200400
  0.8894554280437674  0.7779647612398506  0.8172213512045090
  0.7822542055242607  0.8947404492437059  0.5662114934527125
  0.5577683531676243  0.7823532002054776  0.3105018170307687
  0.4437970229997603  0.8901608720950236  0.0657642122473732
  0.2216929573027855  0.7779647643999752  0.8172213478546908
  0.1106751080001800  0.8881666219023288  0.5679251281813507
  0.8886972260739583  0.7780366651651818  0.3176843222396997
  0.7795474001848746  0.8901608521747164  0.0657642056083176
  0.5587638384165459  0.7843440652143983  0.8195281861102259
  0.4456698140447131  0.8947404367079486  0.5662114955028983
  0.4375021828436658  0.5418207538683433  0.5727776355715761
  0.1092172371234810  0.2211826969455259  0.3722457829090757
  0.2216130825799354  0.1100426376604347  0.1266852211116856
  0.7777469581006073  0.2223103184456576  0.8748543123290986
  0.8922286638657795  0.1132689371981641  0.6246299654977250
  0.4451489669252808  0.2211826908405996  0.3722457852539307
  0.5564316749407183  0.1108509952724361  0.1259068441678863
  0.1096929560041104  0.2194316138278296  0.8790268781084052
  0.2196230802797174  0.1060626090243488  0.6295290283545327
  0.7775621295166175  0.2219407348024589  0.3766084241422760
  0.8876028550652961  0.1108509787509817  0.1259068377485875
  0.4429222453968293  0.2194315918754057  0.8790268889185029
  0.5542238355080116  0.1132689277209451  0.6246299598569180
  0.1116934179737186  0.5547888611163572  0.3763039422806429
  0.2211669836848316  0.4440775291597916  0.1213037955637120
  0.7818704379573660  0.5577831359944341  0.8799239799667191
  0.8886672870614376  0.4441510210191524  0.6267694966569621
  0.4461826882648978  0.5591819199788119  0.3584758794327598
  0.5560940418288425  0.4440775218376416  0.1213038051721611
  0.1090962922722056  0.5577831434149303  0.8799239723032883
  0.1948981412825432  0.4353790404481614  0.6393313813888852
  0.7762789054779802  0.5547888548757527  0.3763039514141227
  0.8883689293166555  0.4435543567803535  0.1279045705678854
  0.4443412464551244  0.5554988930701796  0.8693076842344425
  0.5736644561299116  0.4353790052907911  0.6393313987518709
  0.1108102460048528  0.8884369729915989  0.3771945044785241
  0.2225184879724367  0.7782792085679375  0.1275596444641351
  0.7800438776899696  0.8901698229694333  0.8762201853750398
  0.8880151078163792  0.7773829520195861  0.6258880582767929
  0.4449152529947469  0.8888991324754372  0.3752798975366787
  0.5564247264688404  0.7796659145721208  0.1205303819046790
  0.1105142781620287  0.8878449460802855  0.8776599403195462
  0.2225514136651086  0.7773829469198645  0.6258880581982851
  0.7771673890103514  0.8888991236095904  0.3752798935529498
  0.8889442481553331  0.7782791928782231  0.1275596458223731
  0.4433095560027240  0.8901698145416077  0.8762201911893328
  0.5652126522536278  0.7972417311125426  0.6300995682228816
 
             NaN             NaN             NaN
             NaN             NaN             NaN
             NaN             NaN             NaN
             NaN             NaN             NaN
             NaN             NaN             NaN
             NaN             NaN             NaN
             NaN             NaN             NaN
             NaN             NaN             NaN
             NaN             NaN             NaN
             NaN             NaN             NaN
             NaN             NaN             NaN
             NaN             NaN             NaN
             NaN             NaN             NaN
             NaN             NaN             NaN
             NaN             NaN             NaN
             NaN             NaN             NaN
             NaN             NaN             NaN
             NaN             NaN             NaN
             NaN             NaN             NaN
             NaN             NaN             NaN
             NaN             NaN             NaN
             NaN             NaN             NaN
             NaN             NaN             NaN
             NaN             NaN             NaN
             NaN             NaN             NaN
             NaN             NaN             NaN
             NaN             NaN             NaN
             NaN             NaN             NaN
             NaN             NaN             NaN
             NaN             NaN             NaN
             NaN             NaN             NaN
             NaN             NaN             NaN
             NaN             NaN             NaN
             NaN             NaN             NaN
             NaN             NaN             NaN
             NaN             NaN             NaN
             NaN             NaN             NaN
             NaN             NaN             NaN
             NaN             NaN             NaN
             NaN             NaN             NaN
             NaN             NaN             NaN
             NaN             NaN             NaN
             NaN             NaN             NaN
             NaN             NaN             NaN
             NaN             NaN             NaN
             NaN             NaN             NaN
             NaN             NaN             NaN
             NaN             NaN             NaN
             NaN             NaN             NaN
             NaN             NaN             NaN
             NaN             NaN             NaN
             NaN             NaN             NaN
             NaN             NaN             NaN
             NaN             NaN             NaN
             NaN             NaN             NaN
             NaN             NaN             NaN
             NaN             NaN             NaN
             NaN             NaN             NaN
             NaN             NaN             NaN
             NaN             NaN             NaN
             NaN             NaN             NaN
             NaN             NaN             NaN
             NaN             NaN             NaN
             NaN             NaN             NaN
             NaN             NaN             NaN
             NaN             NaN             NaN
             NaN             NaN             NaN
             NaN             NaN             NaN
             NaN             NaN             NaN
             NaN             NaN             NaN
             NaN             NaN             NaN
             NaN             NaN             NaN
