Al   Hf   N                             
   1.00000000000000     
     9.5315964770961408   -0.0000038087103435    0.0000302140924713
    -4.7657897637815392    8.2502544950475016   -0.0003529836421964
    -0.0000182932357622    0.0082036479906403    9.8312992640965895
   Al   Hf   N 
    35     1    36
Direct
  0.2214499337885485  0.1097369545326714  0.3814545385012877
  0.1091638561626027  0.2190422712296325  0.1304705961629935
  0.8876553659783539  0.1113873974695849  0.8827411091598947
  0.7775445078183978  0.2219269377001325  0.6310512410619964
  0.5545081739463456  0.1113165483897944  0.3846805654301448
  0.4430418020879046  0.2190435648599305  0.1304707345472806
  0.2220611798231715  0.1109589462939695  0.8818360855727647
  0.1142224053592784  0.2230402318291382  0.6355034160937834
  0.8899712016069259  0.1113162922597510  0.3846822065033848
  0.7775591198232803  0.2219545459178320  0.1339650362933682
  0.5568951380132816  0.1113876506674885  0.8827422974153265
  0.4419808298028016  0.2230397896159673  0.6355030336615286
  0.2103531744095051  0.4397915188106580  0.3720500517191141
  0.1094834592963849  0.5573306409619718  0.1297740166829939
  0.8879811612419743  0.4427993344614265  0.8817131912839500
  0.7837077822141367  0.5557836585386084  0.6330780918878460
  0.5626009285356872  0.4397919450156209  0.3720527459275189
  0.4447285925046742  0.5562934448176335  0.1360914120143022
  0.2218701669245107  0.4432750957266975  0.8875650871480047
  0.1052373076732351  0.5557823817190766  0.6330776467057149
  0.8893288625404097  0.4454954494687868  0.3825346717227518
  0.7810091441912945  0.5573299482761129  0.1297742299974587
  0.5545684550742607  0.4432754898420299  0.8875633469356359
  0.2216027747148388  0.7779356440087355  0.3822562226907706
  0.1109761661551971  0.8887886152065434  0.1319091783873532
  0.8890571197588883  0.7785811392811937  0.8818199101227933
  0.7815488087877043  0.8941081762679488  0.6338159591403070
  0.5595474587108669  0.7859317695137875  0.3799819183031303
  0.4438207423709812  0.8902653502817799  0.1330055343353322
  0.2226874889709762  0.7785811202984476  0.8818184693688167
  0.1106597217903129  0.8881571420101508  0.6315028672829897
  0.8894956908343872  0.7779357067230066  0.3822552776602421
  0.7796076185244374  0.8902658281330815  0.1330055419101868
  0.5571790214652594  0.7811947108781254  0.8875859857537804
  0.4457232103489801  0.8941091911137420  0.6338154247492653
  0.4365822827528589  0.5400038843891508  0.6171503547759585
  0.1091312076655413  0.2183885533942203  0.3233611538337939
  0.2215563741109747  0.1099491837053606  0.0756627310097002
  0.7776452301594219  0.2221279724051541  0.8257858805841991
  0.8916388492512084  0.1124651240922958  0.5786050299531098
  0.4424204595051577  0.2183897002353703  0.3233613726423883
  0.5568713227028894  0.1111039200058883  0.0768412871263706
  0.1095798405302020  0.2218900209147918  0.8310563549485153
  0.2202658142827829  0.1073684915025481  0.5749766311447502
  0.7777693435760753  0.2223750488227623  0.3289455894410338
  0.8873955635676936  0.1111037987084842  0.0768400854711260
  0.4454733337244789  0.2218897151325763  0.8310558444796072
  0.5539893002135443  0.1124651987367855  0.5786033437510767
  0.1085541789245212  0.5583251956199646  0.3220806977750641
  0.2220206062397097  0.4445890001104260  0.0825134621598309
  0.7764894286258581  0.5550755207821041  0.8281233743120069
  0.8890339077205311  0.4449055237567023  0.5768899081736336
  0.4437617974963430  0.5543607925926537  0.3384654168433414
  0.5557314718419306  0.4445891794389567  0.0825116501863477
  0.1117494430542436  0.5550747273243175  0.8281231119165469
  0.1910431514750499  0.4334323261595898  0.5631078786035673
  0.7829326387225706  0.5583244946809671  0.3220809965483795
  0.8881328734669935  0.4431026890366709  0.0750691613641408
  0.4464095294568438  0.5596568220341283  0.8398174712595505
  0.5755504301748573  0.4334334277755616  0.5631105991698746
  0.1107000112288503  0.8882364469261432  0.3260728896632159
  0.2225824045012246  0.7790078202151065  0.0755879296065913
  0.7774579877031513  0.8891916158962516  0.8284499073158287
  0.8879226245515000  0.7773147113308454  0.5775006210870615
  0.4430711977614408  0.8900608710438647  0.3265540299453349
  0.5560137640980543  0.7788645051173475  0.0828999156312307
  0.1108977257865433  0.8886323501738147  0.8258545157962658
  0.2225551525645741  0.7773143030109608  0.5775016080892499
  0.7801525419128055  0.8900614445535027  0.3265540160575000
  0.8895888494726449  0.7790078122827708  0.0755893309422504
  0.4448974669362187  0.8891923170606333  0.8284494795242026
  0.5658027765177991  0.7984425475264558  0.5737356176583148
 
             NaN             NaN             NaN
             NaN             NaN             NaN
             NaN             NaN             NaN
             NaN             NaN             NaN
             NaN             NaN             NaN
             NaN             NaN             NaN
             NaN             NaN             NaN
             NaN             NaN             NaN
             NaN             NaN             NaN
             NaN             NaN             NaN
             NaN             NaN             NaN
             NaN             NaN             NaN
             NaN             NaN             NaN
             NaN             NaN             NaN
             NaN             NaN             NaN
             NaN             NaN             NaN
             NaN             NaN             NaN
             NaN             NaN             NaN
             NaN             NaN             NaN
             NaN             NaN             NaN
             NaN             NaN             NaN
             NaN             NaN             NaN
             NaN             NaN             NaN
             NaN             NaN             NaN
             NaN             NaN             NaN
             NaN             NaN             NaN
             NaN             NaN             NaN
             NaN             NaN             NaN
             NaN             NaN             NaN
             NaN             NaN             NaN
             NaN             NaN             NaN
             NaN             NaN             NaN
             NaN             NaN             NaN
             NaN             NaN             NaN
             NaN             NaN             NaN
             NaN             NaN             NaN
             NaN             NaN             NaN
             NaN             NaN             NaN
             NaN             NaN             NaN
             NaN             NaN             NaN
             NaN             NaN             NaN
             NaN             NaN             NaN
             NaN             NaN             NaN
             NaN             NaN             NaN
             NaN             NaN             NaN
             NaN             NaN             NaN
             NaN             NaN             NaN
             NaN             NaN             NaN
             NaN             NaN             NaN
             NaN             NaN             NaN
             NaN             NaN             NaN
             NaN             NaN             NaN
             NaN             NaN             NaN
             NaN             NaN             NaN
             NaN             NaN             NaN
             NaN             NaN             NaN
             NaN             NaN             NaN
             NaN             NaN             NaN
             NaN             NaN             NaN
             NaN             NaN             NaN
             NaN             NaN             NaN
             NaN             NaN             NaN
             NaN             NaN             NaN
             NaN             NaN             NaN
             NaN             NaN             NaN
             NaN             NaN             NaN
             NaN             NaN             NaN
             NaN             NaN             NaN
             NaN             NaN             NaN
             NaN             NaN             NaN
             NaN             NaN             NaN
             NaN             NaN             NaN
