Al   Hf   N                             
   1.00000000000000     
    10.0025521599517795   -0.0000049252707988    0.0000266966297098
    -5.0012771891633401    8.6454366523579722    0.0000219786176694
     0.0000054323971212   -0.0012645948988233    8.4423365366703251
   Al   Hf   N 
    35     1    36
Direct
  0.2219666445623929  0.1107710910694593  0.3551171694634903
  0.1093557162492544  0.2185362108651105  0.1032189394369567
  0.8891013744434417  0.1115300845697931  0.8509768469445191
  0.7779047265799477  0.2226461641822937  0.6034409398368510
  0.5559372736420087  0.1116308319982195  0.3553553863573882
  0.4423425408487631  0.2185343024588065  0.1032078046518166
  0.2217937208387042  0.1104242170572221  0.8510473735636026
  0.1156284184569003  0.2236312953579045  0.6029416221857389
  0.8888557305066342  0.1116299690171303  0.3553628170857976
  0.7770337741527911  0.2209051247565625  0.1028399845507266
  0.5555911891419640  0.1115288720518848  0.8509668619162554
  0.4411657501325621  0.2236316955894324  0.6029335539431386
  0.2138414936790198  0.4405346056875743  0.3448622006919990
  0.1094366307142352  0.5576445807116528  0.1034514034584220
  0.8886400002914598  0.4441155934595926  0.8554119733744940
  0.7878991961269008  0.5590637208089930  0.6018368663805092
  0.5598522347729471  0.4405348424836006  0.3448438663910238
  0.4443139641995018  0.5554663688585961  0.1034819471991923
  0.2127637069784498  0.4405200403396279  0.8613189927115101
  0.1043278291543857  0.5590647918155582  0.6018417543935612
  0.8882208802524332  0.4432801589342859  0.3502291878494788
  0.7813721100115174  0.5576451934042552  0.1034463214325427
  0.5609225855898430  0.4405185088100581  0.8613091098351191
  0.2225365565745747  0.7789996934221435  0.3507914623668995
  0.1115189790756901  0.8898756587264245  0.1033649825496283
  0.8897208678395359  0.7786725738540170  0.8553785639591140
  0.7810347022720521  0.8925242514335139  0.6033596496070714
  0.5583146750696741  0.7834664867567369  0.3490791527880717
  0.4444037684659818  0.8908929468171181  0.1032686291193698
  0.2221155841865539  0.7786729477651377  0.8553774965424807
  0.1093830827923838  0.8856035006883118  0.6027214835567918
  0.8896242570646322  0.7789995041516136  0.3507939228234278
  0.7796519781941811  0.8908927023999311  0.1032727211177971
  0.5583093739392311  0.7834566529980762  0.8581095438194879
  0.4446518580068641  0.8925237072568706  0.6033518334055898
  0.4363581236722922  0.5395497263200468  0.6045639721517162
  0.1098575446805228  0.2206322044545459  0.3538312582652310
  0.2218806457255482  0.1105989955748683  0.1064661455931954
  0.7776301524201443  0.2220989048050797  0.8543818061872628
  0.8909469383544035  0.1121284079031071  0.6054411130676485
  0.4439382267497152  0.2206356397373952  0.3538353763045592
  0.5564778683610569  0.1115084566905651  0.1059043489743630
  0.1098180305162373  0.2200146172597641  0.8577948659020009
  0.2177137815298025  0.1022647926877838  0.6054010270134356
  0.7775700543994333  0.2219759129663785  0.3571246272262130
  0.8881936113480791  0.1115087616900610  0.1058970816281857
  0.4433585663681328  0.2200102668978658  0.8577999471334863
  0.5543440559546156  0.1121281401278509  0.6054399441105787
  0.1097116063074992  0.5571549881596596  0.3511461331222350
  0.2196374864818438  0.4432396451196539  0.1049768261493398
  0.7814705416467334  0.5575724658536885  0.8614073975628358
  0.8891054154884230  0.4450478166914920  0.6058494552755747
  0.4443824555234812  0.5555985929919416  0.3449619361141103
  0.5567645472876137  0.4432390891447966  0.1049723310629389
  0.1092679746315284  0.5575700209122232  0.8614019682546825
  0.1937861303141659  0.4389883164177277  0.6076280872016468
  0.7806003175523344  0.5571518309950534  0.3511498408441298
  0.8876532883815997  0.4421432624694859  0.1062791782701140
  0.4441483290780823  0.5551361653291877  0.8643921505653793
  0.5783658049655216  0.4389869569010045  0.6076528935530163
  0.1105619689899839  0.8879613756399181  0.3543786435313407
  0.2233960259846128  0.7799137060358134  0.1059902287239822
  0.7788551902593355  0.8894940699567044  0.8563847316548490
  0.8888327549227739  0.7779598308645248  0.6057208462221553
  0.4440112911829033  0.8894264451600407  0.3547486470464207
  0.5566092485180079  0.7800559440606776  0.1048599935450554
  0.1106526512978689  0.8881429343111122  0.8574288619266426
  0.2222898158374349  0.7779605831584107  0.6057227108387622
  0.7785775435691420  0.8894277155287611  0.3547473034571524
  0.8896801884942818  0.7799137669012453  0.1059933910788686
  0.4438030932717254  0.8894952033744943  0.8563862962976003
  0.5624148292024671  0.7916670567166904  0.6056517455787969
 
             NaN             NaN             NaN
             NaN             NaN             NaN
             NaN             NaN             NaN
             NaN             NaN             NaN
             NaN             NaN             NaN
             NaN             NaN             NaN
             NaN             NaN             NaN
             NaN             NaN             NaN
             NaN             NaN             NaN
             NaN             NaN             NaN
             NaN             NaN             NaN
             NaN             NaN             NaN
             NaN             NaN             NaN
             NaN             NaN             NaN
             NaN             NaN             NaN
             NaN             NaN             NaN
             NaN             NaN             NaN
             NaN             NaN             NaN
             NaN             NaN             NaN
             NaN             NaN             NaN
             NaN             NaN             NaN
             NaN             NaN             NaN
             NaN             NaN             NaN
             NaN             NaN             NaN
             NaN             NaN             NaN
             NaN             NaN             NaN
             NaN             NaN             NaN
             NaN             NaN             NaN
             NaN             NaN             NaN
             NaN             NaN             NaN
             NaN             NaN             NaN
             NaN             NaN             NaN
             NaN             NaN             NaN
             NaN             NaN             NaN
             NaN             NaN             NaN
             NaN             NaN             NaN
             NaN             NaN             NaN
             NaN             NaN             NaN
             NaN             NaN             NaN
             NaN             NaN             NaN
             NaN             NaN             NaN
             NaN             NaN             NaN
             NaN             NaN             NaN
             NaN             NaN             NaN
             NaN             NaN             NaN
             NaN             NaN             NaN
             NaN             NaN             NaN
             NaN             NaN             NaN
             NaN             NaN             NaN
             NaN             NaN             NaN
             NaN             NaN             NaN
             NaN             NaN             NaN
             NaN             NaN             NaN
             NaN             NaN             NaN
             NaN             NaN             NaN
             NaN             NaN             NaN
             NaN             NaN             NaN
             NaN             NaN             NaN
             NaN             NaN             NaN
             NaN             NaN             NaN
             NaN             NaN             NaN
             NaN             NaN             NaN
             NaN             NaN             NaN
             NaN             NaN             NaN
             NaN             NaN             NaN
             NaN             NaN             NaN
             NaN             NaN             NaN
             NaN             NaN             NaN
             NaN             NaN             NaN
             NaN             NaN             NaN
             NaN             NaN             NaN
             NaN             NaN             NaN
