Al   Hf   N                             
   1.00000000000000     
     9.4355984880777815   -0.0000065119619721    0.0000216981299962
    -4.7177938401020043    8.1732291214056207    0.0005548197237945
    -0.0000217426021901    0.0009198552657328   10.0791632044084913
   Al   Hf   N 
    35     1    36
Direct
  0.2219488889376677  0.1107011176758235  0.3116879876664811
  0.1094021380407426  0.2196306465776630  0.0628657698938895
  0.8901008554395133  0.1117907811584899  0.8098457520299647
  0.7775326128689812  0.2218684820477890  0.5626053885485618
  0.5564383393151147  0.1109757226086003  0.3111370542388840
  0.4434252230161491  0.2196306449460437  0.0628657839388680
  0.2213494594551833  0.1095021251593593  0.8136349410168791
  0.1159558630216111  0.2232512026036204  0.5593217695021409
  0.8877340401660661  0.1109757132220750  0.3111370457948368
  0.7776109471302277  0.2220251783986456  0.0608353473760417
  0.5548867137237963  0.1117907701254950  0.8098457496102611
  0.4404920646260351  0.2232511917065523  0.5593217700567763
  0.2199348700365533  0.4420813933153127  0.3060453145591779
  0.1096579976220582  0.5568664980012556  0.0633900126525830
  0.8890646593841822  0.4449325349882471  0.8121565690574286
  0.7835819682674199  0.5557082678952483  0.5625893168225531
  0.5553431260477879  0.4420814012212304  0.3060453231445948
  0.4447297301338651  0.5562627914012808  0.0600950332332744
  0.2137799550185591  0.4413432827984209  0.8208148110326263
  0.1053230253482482  0.5557082565688987  0.5625892980612122
  0.8881881962895193  0.4431797764632748  0.3127503455082348
  0.7804051598380397  0.5568664817670097  0.0633900101316911
  0.5607600848681500  0.4413432558387029  0.8208148202808800
  0.2225314840238894  0.7780389962048915  0.3126919513627300
  0.1107492321057748  0.8883017561997306  0.0627661924172784
  0.8894663417953339  0.7779724932216396  0.8122265446940702
  0.7822659277633548  0.8947504302140388  0.5612173398668290
  0.5577788536751527  0.7823610730336128  0.3055038351692474
  0.4438051172034676  0.8901663322903133  0.0607655570028385
  0.2217029444792331  0.7779724897253715  0.8122265421994896
  0.1106858859817663  0.8881750133435915  0.5629318859385037
  0.8887041683670773  0.7780389909399048  0.3126919560311237
  0.7795579108545638  0.8901663165064164  0.0607655523840691
  0.5587735760027641  0.7843503682841728  0.8145389159443468
  0.4456812290331058  0.8947504127306303  0.5612173420681188
  0.4375163498139116  0.5418359214094721  0.5677697537852069
  0.1092244736608876  0.2211831928945003  0.3672533953314172
  0.2216208370294908  0.1100449995919490  0.1216912391286940
  0.7777570934639328  0.2223174120845499  0.8698592035248396
  0.8922418702191663  0.1132796476947462  0.6196348694510831
  0.4451553660463858  0.2211831868576581  0.3672533912290703
  0.5564398073228247  0.1108540952279213  0.1209117965129636
  0.1097043882817488  0.2194408292633980  0.8740342139448174
  0.2196324965899592  0.1060682661478580  0.6245398527923243
  0.7775694906040584  0.2219423217578580  0.3716138896083621
  0.8876109688752649  0.1108540843642061  0.1209117873013454
  0.4429332131802965  0.2194408105274732  0.8740342310691602
  0.5542345006098159  0.1132796343973297  0.6196348634076543
  0.1117014515027748  0.5547904827436838  0.3713137227163088
  0.2211727822288339  0.4440792333274501  0.1163134001307569
  0.7818799663929497  0.5577901911084311  0.8749324362533741
  0.8886773656767346  0.4441580102665199  0.6217771972467219
  0.4461912583948120  0.5591859360600466  0.3534716171236170
  0.5561030940933449  0.4440792352427820  0.1163134102939338
  0.1091069885128917  0.5577901931606277  0.8749324364122941
  0.1949180299448940  0.4353923144580989  0.6343407921926243
  0.7762856295768614  0.5547904800801220  0.3713137394571362
  0.8883768000025469  0.4435569596845639  0.1229131520759879
  0.4443532011074183  0.5555096386160585  0.8643279535823822
  0.5736710139306211  0.4353922811821676  0.6343408156005736
  0.1108176511505476  0.8884386532047159  0.3722019934739436
  0.2225274404055284  0.7782819146155830  0.1225682057119357
  0.7800563500695503  0.8901790696196059  0.8712245196078428
  0.8880256325038971  0.7773907973150500  0.6208949193783653
  0.4449238785376721  0.8889017985556578  0.3702874967742318
  0.5564354428258653  0.7796742032856230  0.1155354188652922
  0.1105237948222779  0.8878508036578197  0.8726689531807779
  0.2225618947499015  0.7773907795049766  0.6208949186855861
  0.7771745594972330  0.8889017956676142  0.3702874933883677
  0.8889511497142166  0.7782819029406340  0.1225682063952434
  0.4433194995420990  0.8901790604606106  0.8712245242670704
  0.5652229116664742  0.7972490895524444  0.6251103543333869
 
             NaN             NaN             NaN
             NaN             NaN             NaN
             NaN             NaN             NaN
             NaN             NaN             NaN
             NaN             NaN             NaN
             NaN             NaN             NaN
             NaN             NaN             NaN
             NaN             NaN             NaN
             NaN             NaN             NaN
             NaN             NaN             NaN
             NaN             NaN             NaN
             NaN             NaN             NaN
             NaN             NaN             NaN
             NaN             NaN             NaN
             NaN             NaN             NaN
             NaN             NaN             NaN
             NaN             NaN             NaN
             NaN             NaN             NaN
             NaN             NaN             NaN
             NaN             NaN             NaN
             NaN             NaN             NaN
             NaN             NaN             NaN
             NaN             NaN             NaN
             NaN             NaN             NaN
             NaN             NaN             NaN
             NaN             NaN             NaN
             NaN             NaN             NaN
             NaN             NaN             NaN
             NaN             NaN             NaN
             NaN             NaN             NaN
             NaN             NaN             NaN
             NaN             NaN             NaN
             NaN             NaN             NaN
             NaN             NaN             NaN
             NaN             NaN             NaN
             NaN             NaN             NaN
             NaN             NaN             NaN
             NaN             NaN             NaN
             NaN             NaN             NaN
             NaN             NaN             NaN
             NaN             NaN             NaN
             NaN             NaN             NaN
             NaN             NaN             NaN
             NaN             NaN             NaN
             NaN             NaN             NaN
             NaN             NaN             NaN
             NaN             NaN             NaN
             NaN             NaN             NaN
             NaN             NaN             NaN
             NaN             NaN             NaN
             NaN             NaN             NaN
             NaN             NaN             NaN
             NaN             NaN             NaN
             NaN             NaN             NaN
             NaN             NaN             NaN
             NaN             NaN             NaN
             NaN             NaN             NaN
             NaN             NaN             NaN
             NaN             NaN             NaN
             NaN             NaN             NaN
             NaN             NaN             NaN
             NaN             NaN             NaN
             NaN             NaN             NaN
             NaN             NaN             NaN
             NaN             NaN             NaN
             NaN             NaN             NaN
             NaN             NaN             NaN
             NaN             NaN             NaN
             NaN             NaN             NaN
             NaN             NaN             NaN
             NaN             NaN             NaN
             NaN             NaN             NaN
