Al   Hf   N 
   1.00000000000000     
   9.4355078800411007  -0.0000025746172087   0.0000341018144708
  -4.7177614184307801   8.1732121332393497  -0.0007674156136271
   0.0000103109700690  -0.0009542895889988  10.0794123045868993
Al   Hf   N 
35  1  36  
Direct
  0.2212606271751199  0.1094388388445537  0.4120243457877422  
  0.1093312010848209  0.2195938784742779  0.1627927095915709  
  0.8876593902914820  0.1109380428696625  0.9145253579482642  
  0.7774450452319854  0.2218050835560490  0.6630567459938490  
  0.5547958845287297  0.1117214849631551  0.4158139520598283  
  0.4433492685340852  0.2195948844899718  0.1627928320010028  
  0.2218742146861530  0.1106614419467817  0.9139673349415958  
  0.1158687015291164  0.2231902620803368  0.6663404973389149  
  0.8900070894470957  0.1117212536086214  0.4158139083877970  
  0.7775417728096130  0.2219976175514589  0.1648228271023058  
  0.5563672497349188  0.1109387706936857  0.9145253425108208  
  0.4404057716712657  0.2231912606234161  0.6663402334813284  
  0.2136896648569859  0.4412741300380532  0.4048421831914766  
  0.1095864154806279  0.5568405331250759  0.1622751732495757  
  0.8881193419719295  0.4431514294641872  0.9129046304414103  
  0.7834927095012745  0.5556507199544285  0.6630632355954944  
  0.5606675863323574  0.4412745050864686  0.4048434949734698  
  0.4446557231209383  0.5562256681660784  0.1655681391351536  
  0.2198594992176979  0.4420470710749242  0.9196318075401066  
  0.1052405136123724  0.5556501084049472  0.6630629787582052  
  0.8889760411346970  0.4448699868025372  0.4135032308290150  
  0.7803403007152596  0.5568397620226193  0.1622755095838500  
  0.5552766179234894  0.4420468193403337  0.9196310684488224  
  0.2216179019519231  0.7779151990085253  0.4134344460355805  
  0.1106779358299903  0.8882699220378001  0.1628897090390851  
  0.8886291158968547  0.7780040052168076  0.9129646307255824  
  0.7821702597633404  0.8946823222567701  0.6644407948892166  
  0.5586741280123704  0.7842659748362877  0.4111257208601486  
  0.4437332593054677  0.8901319309732472  0.1648940276132507  
  0.2224626113915988  0.7780040091836540  0.9129644139248968  
  0.1105985168912014  0.8881122147996976  0.6627245284785204  
  0.8893782365071417  0.7779143706911995  0.4134347205167188  
  0.7794849296964870  0.8901323074642491  0.1648942585127813  
  0.5577054663524095  0.7823229800724576  0.9201600236786760  
  0.4455956961558698  0.8946837566357075  0.6644409056748941  
  0.4374237688140141  0.5417594060054043  0.6579180162777050  
  0.1096121501691911  0.2193731057319397  0.3516225272609930  
  0.2215479563609932  0.1100091382343322  0.1039579649854119  
  0.7774996858717174  0.2219118310863735  0.8540456090409094  
  0.8921507001498412  0.1132129468920553  0.6060212102162481  
  0.4428432693515703  0.2193727660364146  0.3516222658615931  
  0.5563680795380321  0.1108185080199036  0.1047476459316030  
  0.1091501366502712  0.2211486056218277  0.8584074182268111  
  0.2195436808074049  0.1060041916317545  0.6011195077713793  
  0.7776704218420036  0.2222587189129328  0.3557997344187172  
  0.8875364999253037  0.1108184425585321  0.1047476478264784  
  0.4450867423650138  0.2211498247734482  0.8584074391437539  
  0.5541453868133459  0.1132127925204713  0.6060218339382075  
  0.1090200471992731  0.5577326742627022  0.3507326542850322  
  0.2210959237914665  0.4440461359971266  0.1093566010067164  
  0.7762098412445013  0.5547528949066844  0.8543351682445746  
  0.8885877798885815  0.4440904578204012  0.6038766013031136  
  0.4442588508851912  0.5554344180004449  0.3613227068392462  
  0.5560367168490430  0.4440464422381396  0.1093566418918428  
  0.1116316914968891  0.5547529044785335  0.8543346396091351  
  0.1948316750900858  0.4353243092248817  0.5913091117006317  
  0.7817965905098134  0.5577326667186213  0.3507317273882009  
  0.8883087714415652  0.4435303060045257  0.1027410095559844  
  0.4461122398280892  0.5591377147003413  0.8722050191543076  
  0.5735735429335449  0.4353257144851241  0.5913110402192601  
  0.1104356564348663  0.8877898140055720  0.3529895071425528  
  0.2224575434677689  0.7782499172417516  0.1030871647065226  
  0.7770974091745160  0.8888626936672637  0.8553688704245488  
  0.8879365400563515  0.7773259289559888  0.6047602300253985  
  0.4432325475327730  0.8901087195599686  0.3544351800996850  
  0.5563626908825654  0.7796391883128564  0.1101277952111914  
  0.1107419989067608  0.8883968307701551  0.8534498725921296  
  0.2224730900654279  0.7773254579967457  0.6047598154409002  
  0.7799591708341183  0.8901092602498721  0.3544350222782242  
  0.8888780993229020  0.7782494804383191  0.1030871776573861  
  0.4448533264999810  0.8888629742053737  0.8553686292816849  
  0.5651231800800431  0.7971621146926822  0.6005469592024895  
