Al   Hf   N                             
   1.00000000000000     
     9.9820389430299805   -0.0000048077381193    0.0000270668889479
    -4.9910088904360475    8.6284768232588185   -0.0000174910938954
     0.0000080241791503    0.0017655565313461    8.4977258109572986
   Al   Hf   N 
    35     1    36
Direct
  0.2217006344289771  0.1102385419456837  0.3605090242725595
  0.1092543430261514  0.2183248347813418  0.1077054645708131
  0.8886498391885738  0.1116917047093438  0.8557986754315152
  0.7779605486499506  0.2227589184427998  0.6074840250053413
  0.5553251417165868  0.1114889081802843  0.3607664665616994
  0.4422346163312270  0.2183286213294693  0.1076920330459430
  0.2220403086383769  0.1109170741595094  0.8558725860534224
  0.1157474899598512  0.2238546736313580  0.6085980367558932
  0.8893261204362162  0.1114872958184279  0.3607797913108044
  0.7770262593893662  0.2208876008333789  0.1091405268158070
  0.5562051268984405  0.1116907338467996  0.8557934824499327
  0.4412698411819562  0.2238525748042406  0.6085890287326805
  0.2123384163023161  0.4405890517195417  0.3489816373398043
  0.1093631374827453  0.5576536874980036  0.1072131518570600
  0.8879428562305094  0.4427213771194332  0.8614529153178054
  0.7877695163717107  0.5589946749787771  0.6111579700486089
  0.5614089906582151  0.4405910856996869  0.3489737093656373
  0.4443536146965954  0.5555416468417818  0.1069273506404755
  0.2147567108050836  0.4406201096518032  0.8666917272624985
  0.1043873996093154  0.5589924340462815  0.6111650151194254
  0.8889502421062687  0.4447389102643271  0.3564001497853795
  0.7814502549293536  0.5576517553011229  0.1072069526115129
  0.5590303069185296  0.4406203420222568  0.8666652871259117
  0.2218235228545069  0.7783819217219019  0.3561046409977706
  0.1115594482114020  0.8899542496770039  0.1078353094289568
  0.8895899330615151  0.7792057807197992  0.8607557858591264
  0.7809983247485803  0.8924573964576155  0.6079506145738165
  0.5583214799706511  0.7834789814058212  0.3525449878605329
  0.4443953894768313  0.8910093954672291  0.1081670770356311
  0.2227807556898966  0.7792057702117603  0.8607522040221056
  0.1093099973410503  0.8854576642449317  0.6091035841270838
  0.8897208013479698  0.7783824906860275  0.3561025150557882
  0.7797774584885886  0.8910105097840599  0.1081702832878619
  0.5582268652316387  0.7832908627995465  0.8621378268402609
  0.4446236067317031  0.8924589971480685  0.6079427763290113
  0.4363547947104038  0.5395545667664834  0.6042842882558261
  0.1098024198809284  0.2196568650952031  0.3486483796264892
  0.2218428815222708  0.1105225223194921  0.0992760648579463
  0.7775863935518785  0.2220110590134681  0.8490295125540825
  0.8910740044611316  0.1121251023984513  0.6016967832288316
  0.4430187147036833  0.2196625502941600  0.3486545060030153
  0.5566071476027474  0.1115476762901224  0.1002850921335252
  0.1099275628810972  0.2210396327746480  0.8529899209435499
  0.2177264051480066  0.1022898095602542  0.6017496044781936
  0.7776545157025154  0.2221431808176106  0.3526196220235320
  0.8881035917057503  0.1115472885822015  0.1002752395501716
  0.4442741011203992  0.2210349468125798  0.8529953767836886
  0.5542149485259316  0.1121257777905527  0.6016942277176156
  0.1090873369302017  0.5577664028690350  0.3441917621604276
  0.2198361690059656  0.4432492900995015  0.1029291438162332
  0.7800280516066493  0.5568639458054534  0.8554801602993223
  0.8892342692728690  0.4453057092569992  0.6005721150767016
  0.4439953505198702  0.5548252488744865  0.3444977144587966
  0.5565764599382348  0.4432503498134679  0.1029224858884064
  0.1100021987511184  0.5568598191283769  0.8554760860163810
  0.1935334867925178  0.4389050275643314  0.5968544731628356
  0.7818347841810791  0.5577628619813240  0.3441992243403007
  0.8875669917430500  0.4419718348364086  0.0998585543194466
  0.4445427127148420  0.5559280026995879  0.8630172098321367
  0.5785320426498188  0.4389073430235513  0.5968869456781292
  0.1107185984415722  0.8882730224626911  0.3490481071917699
  0.2234023946042853  0.7799890802804939  0.1003642478232933
  0.7782997580672841  0.8892690443957036  0.8519814074399576
  0.8887329961174828  0.7778001912179917  0.6008501086449130
  0.4436546330767612  0.8896420299821983  0.3503223814637479
  0.5565699083957512  0.7799763764340426  0.1031463690040084
  0.1104907155325634  0.8878184778706739  0.8519825096113109
  0.2222298925224493  0.7777988777065659  0.6008531771489274
  0.7791502972517463  0.8896437724331818  0.3503202528356795
  0.8897501581492406  0.7799887913975709  0.1003695257555535
  0.4441347606320889  0.8892709358323856  0.8519822201055760
  0.5624885200566325  0.7918135039475231  0.6005914887350698
 
             NaN             NaN             NaN
             NaN             NaN             NaN
             NaN             NaN             NaN
             NaN             NaN             NaN
             NaN             NaN             NaN
             NaN             NaN             NaN
             NaN             NaN             NaN
             NaN             NaN             NaN
             NaN             NaN             NaN
             NaN             NaN             NaN
             NaN             NaN             NaN
             NaN             NaN             NaN
             NaN             NaN             NaN
             NaN             NaN             NaN
             NaN             NaN             NaN
             NaN             NaN             NaN
             NaN             NaN             NaN
             NaN             NaN             NaN
             NaN             NaN             NaN
             NaN             NaN             NaN
             NaN             NaN             NaN
             NaN             NaN             NaN
             NaN             NaN             NaN
             NaN             NaN             NaN
             NaN             NaN             NaN
             NaN             NaN             NaN
             NaN             NaN             NaN
             NaN             NaN             NaN
             NaN             NaN             NaN
             NaN             NaN             NaN
             NaN             NaN             NaN
             NaN             NaN             NaN
             NaN             NaN             NaN
             NaN             NaN             NaN
             NaN             NaN             NaN
             NaN             NaN             NaN
             NaN             NaN             NaN
             NaN             NaN             NaN
             NaN             NaN             NaN
             NaN             NaN             NaN
             NaN             NaN             NaN
             NaN             NaN             NaN
             NaN             NaN             NaN
             NaN             NaN             NaN
             NaN             NaN             NaN
             NaN             NaN             NaN
             NaN             NaN             NaN
             NaN             NaN             NaN
             NaN             NaN             NaN
             NaN             NaN             NaN
             NaN             NaN             NaN
             NaN             NaN             NaN
             NaN             NaN             NaN
             NaN             NaN             NaN
             NaN             NaN             NaN
             NaN             NaN             NaN
             NaN             NaN             NaN
             NaN             NaN             NaN
             NaN             NaN             NaN
             NaN             NaN             NaN
             NaN             NaN             NaN
             NaN             NaN             NaN
             NaN             NaN             NaN
             NaN             NaN             NaN
             NaN             NaN             NaN
             NaN             NaN             NaN
             NaN             NaN             NaN
             NaN             NaN             NaN
             NaN             NaN             NaN
             NaN             NaN             NaN
             NaN             NaN             NaN
             NaN             NaN             NaN
