Al   Hf   N                             
   1.00000000000000     
     9.8089291389032933   -0.0000043376074013    0.0000285479259001
    -4.9044540641182737    8.4831208480327156   -0.0001753699401547
    -0.0000058372633070    0.0055100487418628    9.0252169257664292
   Al   Hf   N 
    35     1    36
Direct
  0.2213999328359577  0.1096368979294056  0.3747058373670171
  0.1085767498849251  0.2172324247936572  0.1202597440550832
  0.8875885844791540  0.1116966190542428  0.8701203791818344
  0.7779961072624673  0.2228324275772877  0.6196293155772707
  0.5541749355599634  0.1112497905796417  0.3760659943147715
  0.4418197528874686  0.2172375849613672  0.1202578430096324
  0.2221807014704069  0.1111980246836808  0.8691707640561077
  0.1157413499154956  0.2248691598952703  0.6247873084034765
  0.8902376006301509  0.1112488364175377  0.3760752684016282
  0.7771625892188112  0.2211587082576330  0.1250617793477602
  0.5572712019614130  0.1116961020310328  0.8701275381584850
  0.4422910572906318  0.2248657798930083  0.6247863576507555
  0.2100559296647120  0.4401971354728857  0.3584276771377617
  0.1088500762074247  0.5579651666792955  0.1181536545464539
  0.8872709719394720  0.4413783099622890  0.8733005657821806
  0.7855142778190185  0.5574558285167655  0.6265006602232077
  0.5633030112803610  0.4401981196212006  0.3584382129372443
  0.4446313733906493  0.5560961267882050  0.1205688827055411
  0.2190984529413029  0.4416671747867795  0.8805326711235182
  0.1051029646943320  0.5574520732017305  0.6265006357873446
  0.8898745198866820  0.4465869219169250  0.3722196131008388
  0.7822735071330413  0.5579616892632302  0.1181534236304032
  0.5557329019341779  0.4416678555131242  0.8805212193123424
  0.2211368992670870  0.7776952814038225  0.3715312994641806
  0.1115475804442667  0.8899289553119658  0.1218051442193158
  0.8894818114917058  0.7795165469263168  0.8732440416440852
  0.7807495775799680  0.8926365468130868  0.6228540534264297
  0.5589768321888400  0.7847896232220748  0.3659546192030305
  0.4439541056859184  0.8913405308374962  0.1228106860346614
  0.2231990951096847  0.7795165396214614  0.8732367115044823
  0.1094774508563603  0.8857941918430896  0.6229617494575308
  0.8897211601739059  0.7776957341369055  0.3715250015821283
  0.7805498002865150  0.8913433231709220  0.1228096971748229
  0.5576834161329458  0.7822040601378433  0.8775602332895716
  0.4450533422753935  0.8926401209203050  0.6228510788720598
  0.4363315220436732  0.5395088845097433  0.6065848667305644
  0.1093420314821500  0.2179021847870146  0.3336424430184408
  0.2215630075629633  0.1099624863378779  0.0834043675990799
  0.7776871014170226  0.2222138251434274  0.8338788657540519
  0.8917077373779136  0.1121578125733009  0.5895705611699640
  0.4417238361131339  0.2179068206719634  0.3336424657843438
  0.5572650436176190  0.1114907361609170  0.0852772878248444
  0.1099084454465000  0.2223850387361423  0.8407463896698602
  0.2186843541253580  0.1042051084975313  0.5885698472305805
  0.7777238849987000  0.2222812866078456  0.3405488050081757
  0.8873888714741156  0.1114906848223498  0.0852697869671459
  0.4456396294757852  0.2223819432972149  0.8407459067147585
  0.5536138041521070  0.1121588191974041  0.5895617766610428
  0.1082469416521903  0.5587575204127333  0.3294180451726589
  0.2208084764608458  0.4436105725911617  0.0948038618723146
  0.7774690967435163  0.5556011401105749  0.8419462305477694
  0.8897144366105536  0.4462671400229681  0.5874435605660722
  0.4434107504191900  0.5536564226050800  0.3438694088538696
  0.5559653658721828  0.4436113047691563  0.0947936904149103
  0.1112962629219112  0.5555977794681866  0.8419462641640862
  0.1913355551888571  0.4367574768605706  0.5745778731648272
  0.7836685744589929  0.5587542711786284  0.3294194347001920
  0.8873651250697279  0.4415676746726689  0.0851279100000397
  0.4455693877767501  0.5579797770825792  0.8525674819711213
  0.5785822729085268  0.4367600211563456  0.5745908090619665
  0.1109346463500458  0.8887039278929407  0.3358025615349689
  0.2231804092171714  0.7801553987056309  0.0858094005994232
  0.7772742666201395  0.8887073842670929  0.8382207208951371
  0.8881303444630930  0.7770606703995355  0.5874750266125801
  0.4429553064770815  0.8903073744422869  0.3365321082490738
  0.5564504423494796  0.7797377939218677  0.0940357939061727
  0.1104459405859259  0.8877303316647200  0.8367669168383998
  0.2220931665545436  0.7770597273077513  0.5874810490409814
  0.7805153240758500  0.8903100965709854  0.3365310881034773
  0.8901387315072213  0.7801550284370151  0.0858163471585200
  0.4445993760083766  0.8887104095762908  0.8382186936843823
  0.5637901735647119  0.7944164072567261  0.5838830473383041
 
             NaN             NaN             NaN
             NaN             NaN             NaN
             NaN             NaN             NaN
             NaN             NaN             NaN
             NaN             NaN             NaN
             NaN             NaN             NaN
             NaN             NaN             NaN
             NaN             NaN             NaN
             NaN             NaN             NaN
             NaN             NaN             NaN
             NaN             NaN             NaN
             NaN             NaN             NaN
             NaN             NaN             NaN
             NaN             NaN             NaN
             NaN             NaN             NaN
             NaN             NaN             NaN
             NaN             NaN             NaN
             NaN             NaN             NaN
             NaN             NaN             NaN
             NaN             NaN             NaN
             NaN             NaN             NaN
             NaN             NaN             NaN
             NaN             NaN             NaN
             NaN             NaN             NaN
             NaN             NaN             NaN
             NaN             NaN             NaN
             NaN             NaN             NaN
             NaN             NaN             NaN
             NaN             NaN             NaN
             NaN             NaN             NaN
             NaN             NaN             NaN
             NaN             NaN             NaN
             NaN             NaN             NaN
             NaN             NaN             NaN
             NaN             NaN             NaN
             NaN             NaN             NaN
             NaN             NaN             NaN
             NaN             NaN             NaN
             NaN             NaN             NaN
             NaN             NaN             NaN
             NaN             NaN             NaN
             NaN             NaN             NaN
             NaN             NaN             NaN
             NaN             NaN             NaN
             NaN             NaN             NaN
             NaN             NaN             NaN
             NaN             NaN             NaN
             NaN             NaN             NaN
             NaN             NaN             NaN
             NaN             NaN             NaN
             NaN             NaN             NaN
             NaN             NaN             NaN
             NaN             NaN             NaN
             NaN             NaN             NaN
             NaN             NaN             NaN
             NaN             NaN             NaN
             NaN             NaN             NaN
             NaN             NaN             NaN
             NaN             NaN             NaN
             NaN             NaN             NaN
             NaN             NaN             NaN
             NaN             NaN             NaN
             NaN             NaN             NaN
             NaN             NaN             NaN
             NaN             NaN             NaN
             NaN             NaN             NaN
             NaN             NaN             NaN
             NaN             NaN             NaN
             NaN             NaN             NaN
             NaN             NaN             NaN
             NaN             NaN             NaN
             NaN             NaN             NaN
