Al   Hf   N                             
   1.00000000000000     
     9.4356492715710836   -0.0000034561123050    0.0000313248701854
    -4.7178215623809550    8.1732620185036247   -0.0004713927768909
    -0.0000327631959313   -0.0008510927289424   10.0790500936292613
   Al   Hf   N 
    35     1    36
Direct
  0.2213091974065335  0.1094759275716015  0.3902176040796306
  0.1093637121904294  0.2196080598935097  0.1409839705882163
  0.8876962686716183  0.1109551060538365  0.8927141417768141
  0.7774916925691358  0.2218409489665731  0.6412452938869677
  0.5548456571148819  0.1117613545929856  0.3940039235187953
  0.4433868582274485  0.2196080815639192  0.1409839658046792
  0.2219119358957329  0.1106813729031728  0.8921622970267933
  0.1159091460614263  0.2232206811338955  0.6445293210543213
  0.8900581624765849  0.1117613482232898  0.3940039178398607
  0.7775725966183202  0.2220026813497284  0.1430159607269772
  0.5564013339251588  0.1109551421121537  0.8927141312018634
  0.4404539378507053  0.2232206857849306  0.6445293244123249
  0.2137310756372202  0.4413118583585955  0.3830372755329989
  0.1096199682391941  0.5568443689205935  0.1404606637844523
  0.8881503044210959  0.4431581291448694  0.8911027792906481
  0.7835424245672513  0.5556815184985382  0.6412654292650473
  0.5607231879141494  0.4413118486553813  0.3830372847888839
  0.4446906062711378  0.5562387776062678  0.1437626971805557
  0.2199016481538507  0.4420632995241505  0.8978025765672442
  0.1052814668945103  0.5556814865462769  0.6412654279480989
  0.8890243027683837  0.4449061681158071  0.3916962870038176
  0.7803668385223119  0.5568443472458213  0.1404606820853971
  0.5553041418622655  0.4420633529753104  0.8978025751436292
  0.2216627055771312  0.7779454630935021  0.3916255747923998
  0.1107115426400611  0.8882805796423057  0.1410874492831482
  0.8886679730205032  0.7780189996682125  0.8911612630994128
  0.7822236550048487  0.8947215220226425  0.6426365837946122
  0.5587340262067499  0.7843256122988507  0.3893153618106737
  0.4437670093974688  0.8901421686911846  0.1430833012979278
  0.2224935390270630  0.7780189925273788  0.8911612576049066
  0.1106455418785472  0.8881486169709234  0.6409201364284058
  0.8894252315915239  0.7779454689290048  0.3916255800123949
  0.7795176230385863  0.8901421290173133  0.1430833109402485
  0.5577384920085819  0.7823345089352358  0.8983426233214189
  0.4456402940381281  0.8947215281800283  0.6426365818504820
  0.4374718625286249  0.5418013535513211  0.6360615299164891
  0.1096623622605861  0.2194126666313494  0.3298171966383379
  0.2215832397345565  0.1100239792321105  0.0821606954334300
  0.7775322503796502  0.2219220092266383  0.8322383269452445
  0.8921982202231646  0.1132495823720561  0.5842166540411711
  0.4428927795691209  0.2194126705363928  0.3298171944466262
  0.5564025346942643  0.1108325907327341  0.0829407610512405
  0.1091871476733672  0.2211637173042789  0.8365988959855244
  0.2195933397571750  0.1060442465373370  0.5793144028233286
  0.7777170893103644  0.2222917093356855  0.3339937787558043
  0.8875725334209861  0.1108325523575786  0.0829407690992596
  0.4451190605006872  0.2211637547570433  0.8365988974073773
  0.5541937854335472  0.1132495957719755  0.5842166607753043
  0.1090660872003397  0.5577648106521167  0.3289195745790181
  0.2211377226702851  0.4440593193132969  0.0875386661683919
  0.7762496865404884  0.5547709129005867  0.8325417234007944
  0.8886374079877868  0.4441324408000469  0.5820771031827476
  0.4443110690326932  0.5554797297807355  0.3395368666908283
  0.5560640544282691  0.4440593436617988  0.0875386653573855
  0.1116636979097265  0.5547708965581535  0.8325417220276563
  0.1948662955180680  0.4353593212383728  0.5695118211110923
  0.7818411482820053  0.5577648066943794  0.3289195970641785
  0.8883388659270821  0.4435352726628849  0.0809405318057301
  0.4461535573469178  0.5591646639471151  0.8503647478101968
  0.5736354206961281  0.4353593419289723  0.5695118357534383
  0.1104840541190697  0.8878256278805665  0.3311860754869258
  0.2224891681431913  0.7782615343539518  0.0812858132894618
  0.7771380719068048  0.8888815850187299  0.8335674174774823
  0.8879849048511446  0.7773642016769671  0.5829588419406591
  0.4432792990090704  0.8901511929407349  0.3326266293613571
  0.5563949677278188  0.7796474567768712  0.0883153071229970
  0.1107808962144148  0.8884192754632352  0.8316510546898712
  0.2225217308361991  0.7773641787238503  0.5829588365457852
  0.7800143554341972  0.8901511812393892  0.3326266359581282
  0.8889148666785545  0.7782615186710089  0.0812858204841689
  0.4448860080397097  0.8888816020938677  0.8335674181418540
  0.5651831858852177  0.7972239448390894  0.5787454854065004
 
             NaN             NaN             NaN
             NaN             NaN             NaN
             NaN             NaN             NaN
             NaN             NaN             NaN
             NaN             NaN             NaN
             NaN             NaN             NaN
             NaN             NaN             NaN
             NaN             NaN             NaN
             NaN             NaN             NaN
             NaN             NaN             NaN
             NaN             NaN             NaN
             NaN             NaN             NaN
             NaN             NaN             NaN
             NaN             NaN             NaN
             NaN             NaN             NaN
             NaN             NaN             NaN
             NaN             NaN             NaN
             NaN             NaN             NaN
             NaN             NaN             NaN
             NaN             NaN             NaN
             NaN             NaN             NaN
             NaN             NaN             NaN
             NaN             NaN             NaN
             NaN             NaN             NaN
             NaN             NaN             NaN
             NaN             NaN             NaN
             NaN             NaN             NaN
             NaN             NaN             NaN
             NaN             NaN             NaN
             NaN             NaN             NaN
             NaN             NaN             NaN
             NaN             NaN             NaN
             NaN             NaN             NaN
             NaN             NaN             NaN
             NaN             NaN             NaN
             NaN             NaN             NaN
             NaN             NaN             NaN
             NaN             NaN             NaN
             NaN             NaN             NaN
             NaN             NaN             NaN
             NaN             NaN             NaN
             NaN             NaN             NaN
             NaN             NaN             NaN
             NaN             NaN             NaN
             NaN             NaN             NaN
             NaN             NaN             NaN
             NaN             NaN             NaN
             NaN             NaN             NaN
             NaN             NaN             NaN
             NaN             NaN             NaN
             NaN             NaN             NaN
             NaN             NaN             NaN
             NaN             NaN             NaN
             NaN             NaN             NaN
             NaN             NaN             NaN
             NaN             NaN             NaN
             NaN             NaN             NaN
             NaN             NaN             NaN
             NaN             NaN             NaN
             NaN             NaN             NaN
             NaN             NaN             NaN
             NaN             NaN             NaN
             NaN             NaN             NaN
             NaN             NaN             NaN
             NaN             NaN             NaN
             NaN             NaN             NaN
             NaN             NaN             NaN
             NaN             NaN             NaN
             NaN             NaN             NaN
             NaN             NaN             NaN
             NaN             NaN             NaN
             NaN             NaN             NaN
