Al   Hf   N                             
   1.00000000000000     
     9.4355847685130474   -0.0000032210469460    0.0000320653886615
    -4.7177894701002687    8.1732191893520856   -0.0005503322000206
    -0.0000337511605560   -0.0010143586836040   10.0791939118230829
   Al   Hf   N 
    35     1    36
Direct
  0.2212977949961257  0.1094703998348834  0.3967716710639095
  0.1093498358519724  0.2195975979188489  0.1475415406388123
  0.8876814613361503  0.1109420756449282  0.8992701622534369
  0.7774811494143847  0.2218371291796402  0.6478016898734325
  0.5548351355965053  0.1117600045204838  0.4005623288005182
  0.4433730032502865  0.2195976175319743  0.1475415351239917
  0.2218962056613449  0.1106671776340704  0.8987193407050356
  0.1159062091572096  0.2232207609435335  0.6510861203413185
  0.8900500573936014  0.1117599980348203  0.4005623234968851
  0.7775586886184911  0.2219921445098620  0.1495719537439797
  0.5563858467060356  0.1109421183235142  0.8992701455957928
  0.4404396854897072  0.2232207752456432  0.6510861197463811
  0.2137307764933922  0.4413129034773533  0.3895919006672059
  0.1096056475142291  0.5568334257398391  0.1470169740925300
  0.8881358715323771  0.4431465280556566  0.8976557375412639
  0.7835300087557400  0.5556766109689875  0.6478162193729702
  0.5607072780928846  0.4413128948714800  0.3895919062963529
  0.4446777685375949  0.5562303648740681  0.1503106728224424
  0.2198811611037357  0.4420471701630149  0.9043629961363919
  0.1052717191821628  0.5556765749998149  0.6478162115318540
  0.8890129807193574  0.4449007812363206  0.3982496202786905
  0.7803529529659841  0.5568334040400984  0.1470169835238124
  0.5552912198657296  0.4420472216063231  0.9043629944330789
  0.2216512195993801  0.7779409456839872  0.3981798676430586
  0.1106967948581072  0.8882683446474502  0.1476396715723567
  0.8886513175606012  0.7780052216022213  0.8977140809711059
  0.7822148555685757  0.8947193695504509  0.6491889767241332
  0.5587216889695057  0.7843181918678113  0.3958676627055766
  0.4437528506612125  0.8901338755478605  0.1496423740449160
  0.2224791578494205  0.7780052155106105  0.8977140746118835
  0.1106342585040281  0.8881432986881848  0.6474744442972238
  0.8894149485774747  0.7779409485263500  0.3981798735147279
  0.7795062247268376  0.8901338345230414  0.1496423872663541
  0.5577272591635989  0.7823293052461864  0.9049047551818106
  0.4456296859028868  0.8947193793526651  0.6491889727201894
  0.4374658307943591  0.5418065424703826  0.6426436605495454
  0.1096531637445324  0.2194095595698329  0.3363727390127522
  0.2215683989790946  0.1100115657084828  0.0887156113352603
  0.7775169602975538  0.2219086946364897  0.8387928686524617
  0.8921913493972724  0.1132490570744622  0.5907726122862016
  0.4428815858961741  0.2194095630743931  0.3363727366203051
  0.5563873474756207  0.1108207858719013  0.0894950538065018
  0.1091719139427880  0.2211493096142618  0.8431540143570118
  0.2195806017487740  0.1060360523921062  0.5858664592129941
  0.7777052607884514  0.2222853367251219  0.3405477290471097
  0.8875586379415239  0.1108207486725732  0.0894950678548838
  0.4451026149260358  0.2211493490086553  0.8431540032260401
  0.5541828610153061  0.1132490747067791  0.5907726201014540
  0.1090555204102372  0.5577581423590416  0.3354742567723505
  0.2211196514469620  0.4440455391929987  0.0940936348555752
  0.7762326733589688  0.5547566094489795  0.8390918536564413
  0.8886255733684223  0.4441260217187093  0.5886287228816514
  0.4443020955820742  0.5554790352715173  0.3460754310087282
  0.5560510744093321  0.4440455564248822  0.0940936299929547
  0.1116491356628231  0.5547565971833208  0.8390918390436539
  0.1948698394641895  0.4353624036579333  0.5760659300808442
  0.7818277894869681  0.5577581375317493  0.3354742659548648
  0.8883244277807947  0.4435236617081628  0.0874930002998227
  0.4461388867638689  0.5591526040868615  0.8569403109652569
  0.5736177144026868  0.4353624338223270  0.5760659389369991
  0.1104719938149472  0.8878187613733104  0.3377367170212366
  0.2224752896810500  0.7782483270333174  0.0878378019043495
  0.7771217693812247  0.8888681296150622  0.8401185488767382
  0.8879741172902129  0.7773591522446068  0.5895111914797297
  0.4432678960428547  0.8901478761010537  0.3391828778472430
  0.5563838645849373  0.7796425149003596  0.0948720102415592
  0.1107650155791120  0.8884047766418703  0.8382042413565571
  0.2225102237313408  0.7773591249073633  0.5895111833994662
  0.7800051848964387  0.8901478616169101  0.3391828914912551
  0.8888982764779669  0.7782483169406760  0.0878378096108818
  0.4448715977753963  0.8888681538357588  0.8401185464284140
  0.5651710463305477  0.7972169221727015  0.5852957153111049
 
             NaN             NaN             NaN
             NaN             NaN             NaN
             NaN             NaN             NaN
             NaN             NaN             NaN
             NaN             NaN             NaN
             NaN             NaN             NaN
             NaN             NaN             NaN
             NaN             NaN             NaN
             NaN             NaN             NaN
             NaN             NaN             NaN
             NaN             NaN             NaN
             NaN             NaN             NaN
             NaN             NaN             NaN
             NaN             NaN             NaN
             NaN             NaN             NaN
             NaN             NaN             NaN
             NaN             NaN             NaN
             NaN             NaN             NaN
             NaN             NaN             NaN
             NaN             NaN             NaN
             NaN             NaN             NaN
             NaN             NaN             NaN
             NaN             NaN             NaN
             NaN             NaN             NaN
             NaN             NaN             NaN
             NaN             NaN             NaN
             NaN             NaN             NaN
             NaN             NaN             NaN
             NaN             NaN             NaN
             NaN             NaN             NaN
             NaN             NaN             NaN
             NaN             NaN             NaN
             NaN             NaN             NaN
             NaN             NaN             NaN
             NaN             NaN             NaN
             NaN             NaN             NaN
             NaN             NaN             NaN
             NaN             NaN             NaN
             NaN             NaN             NaN
             NaN             NaN             NaN
             NaN             NaN             NaN
             NaN             NaN             NaN
             NaN             NaN             NaN
             NaN             NaN             NaN
             NaN             NaN             NaN
             NaN             NaN             NaN
             NaN             NaN             NaN
             NaN             NaN             NaN
             NaN             NaN             NaN
             NaN             NaN             NaN
             NaN             NaN             NaN
             NaN             NaN             NaN
             NaN             NaN             NaN
             NaN             NaN             NaN
             NaN             NaN             NaN
             NaN             NaN             NaN
             NaN             NaN             NaN
             NaN             NaN             NaN
             NaN             NaN             NaN
             NaN             NaN             NaN
             NaN             NaN             NaN
             NaN             NaN             NaN
             NaN             NaN             NaN
             NaN             NaN             NaN
             NaN             NaN             NaN
             NaN             NaN             NaN
             NaN             NaN             NaN
             NaN             NaN             NaN
             NaN             NaN             NaN
             NaN             NaN             NaN
             NaN             NaN             NaN
             NaN             NaN             NaN
