Al   Hf   N                             
   1.00000000000000     
     9.5988521867361456   -0.0000039262430230    0.0000298438332332
    -4.7994164005764359    8.3064014149562322   -0.0003135139306316
    -0.0000149450902254    0.0082901776014528    9.6453087487995077
   Al   Hf   N 
    35     1    36
Direct
  0.2214193115146870  0.1096757617683224  0.3803983112395173
  0.1089076369305246  0.2184383353025652  0.1285303688447854
  0.8875196984554776  0.1114365989202923  0.8805034480434699
  0.7776533585035992  0.2221453154307511  0.6289145884796596
  0.5543290833147196  0.1112575617566023  0.3833161463306141
  0.4426943462058333  0.2184407580980192  0.1285303994556699
  0.2220907477951286  0.1110179560636695  0.8795347093197563
  0.1142454583475754  0.2235203802009806  0.6339140090401969
  0.8900914302595879  0.1112572872579847  0.3833196693805121
  0.7774697869268650  0.2217751359989961  0.1326149383035826
  0.5570799742088468  0.1114366715694786  0.8805061992837224
  0.4424378303086911  0.2235187914443344  0.6339135184923705
  0.2095706176033261  0.4395987290146124  0.3691481226974531
  0.1092633127332476  0.5575850610998216  0.1275102821392622
  0.8877787366077143  0.4423942335447109  0.8801786575906476
  0.7838125271565630  0.5559728958694805  0.6321747489921563
  0.5631905616472253  0.4395992175746741  0.3691533353233396
  0.4447399911671610  0.5563153238293026  0.1340326830440119
  0.2219037971858455  0.4432049936913529  0.8864236286733203
  0.1053217919511837  0.5559709086830082  0.6321742355449658
  0.8895268598786146  0.4458913448553758  0.3809546395390058
  0.7814827085368492  0.5575835114229335  0.1275104874492357
  0.5544647545718320  0.4432054301343840  0.8864199627284179
  0.2214731534287608  0.7778868006136079  0.3805566946735155
  0.1111086200210067  0.8890526844784290  0.1302478135778671
  0.8891483174653771  0.7788196152687377  0.8802687473637647
  0.7812293109609740  0.8937512458286889  0.6320575736014860
  0.5596341010175934  0.7861049121374606  0.3776265717128666
  0.4438118493197365  0.8905343609303031  0.1312200142709727
  0.2228351133126267  0.7788195338917916  0.8802657493123363
  0.1104605547074939  0.8877590596165277  0.6300227075665958
  0.8895765639360178  0.7778870287123709  0.3805543804354912
  0.7798855837862959  0.8905355215832955  0.1312197814107066
  0.5571431172079713  0.7811230820430595  0.8858892138123409
  0.4456863930398498  0.8937528966231412  0.6320566012423896
  0.4364214862859299  0.5396851669125979  0.6132712726115841
  0.1090530392864792  0.2179960284983409  0.3249734972032101
  0.2215082406752131  0.1098527052666611  0.0768492134094103
  0.7776532434624883  0.2221446994644936  0.8270003888804212
  0.8916552573750636  0.1123465865883944  0.5805975232842684
  0.4421064122212144  0.2179983791750075  0.3249738371931272
  0.5570578521913419  0.1111871589055013  0.0782011743358026
  0.1096839863524863  0.2221326610318854  0.8328897777310118
  0.2202204740647531  0.1072776255688410  0.5775648087086225
  0.7777826117908972  0.2224008273525726  0.3311561260759959
  0.8872922241577967  0.1111869590407508  0.0781984629561521
  0.4456119494015383  0.2221318245608259  0.8328889175954615
  0.5538546159598781  0.1123470626120380  0.5805939198396999
  0.1083283421435937  0.5586154232147962  0.3231570858323849
  0.2218804711682552  0.4444411861103745  0.0851063147385389
  0.7765196002241623  0.5551004132071995  0.8307683031261277
  0.8892684305533223  0.4453754119673121  0.5789067660259093
  0.4435724841949948  0.5539814062472246  0.3406162996183824
  0.5557239283413793  0.4444415025680115  0.0851022201557470
  0.1117442290422019  0.5550988800572796  0.8307681494273353
  0.1904876586435620  0.4336416138930801  0.5645439118660249
  0.7834475412093340  0.5586139651508972  0.3231576975502719
  0.8879227399275749  0.4426826106988599  0.0767408445765270
  0.4463634881621985  0.5595653599963981  0.8414880359280232
  0.5763151094839003  0.4336432251013917  0.5645490888127398
  0.1107714510721607  0.8883788789554146  0.3279152583283960
  0.2226883348325615  0.7793554264927849  0.0773023733641551
  0.7773792844567637  0.8890740088049895  0.8302231785922771
  0.8879241555336961  0.7772153029269262  0.5793283591184348
  0.4429361275614099  0.8901595282899564  0.3282315312103279
  0.5560718307735542  0.7789805061287467  0.0851060658211225
  0.1108243889057192  0.8884861730607980  0.8276699015053453
  0.2224541676538152  0.7772148210798946  0.5793305809388656
  0.7803864321138363  0.8901606960587714  0.3282313608636471
  0.8898306232352198  0.7793552836971926  0.0773051662712163
  0.4448594529819019  0.8890755005397182  0.8302223699736118
  0.5656105946819778  0.7980577377060740  0.5754403153647729
 
             NaN             NaN             NaN
             NaN             NaN             NaN
             NaN             NaN             NaN
             NaN             NaN             NaN
             NaN             NaN             NaN
             NaN             NaN             NaN
             NaN             NaN             NaN
             NaN             NaN             NaN
             NaN             NaN             NaN
             NaN             NaN             NaN
             NaN             NaN             NaN
             NaN             NaN             NaN
             NaN             NaN             NaN
             NaN             NaN             NaN
             NaN             NaN             NaN
             NaN             NaN             NaN
             NaN             NaN             NaN
             NaN             NaN             NaN
             NaN             NaN             NaN
             NaN             NaN             NaN
             NaN             NaN             NaN
             NaN             NaN             NaN
             NaN             NaN             NaN
             NaN             NaN             NaN
             NaN             NaN             NaN
             NaN             NaN             NaN
             NaN             NaN             NaN
             NaN             NaN             NaN
             NaN             NaN             NaN
             NaN             NaN             NaN
             NaN             NaN             NaN
             NaN             NaN             NaN
             NaN             NaN             NaN
             NaN             NaN             NaN
             NaN             NaN             NaN
             NaN             NaN             NaN
             NaN             NaN             NaN
             NaN             NaN             NaN
             NaN             NaN             NaN
             NaN             NaN             NaN
             NaN             NaN             NaN
             NaN             NaN             NaN
             NaN             NaN             NaN
             NaN             NaN             NaN
             NaN             NaN             NaN
             NaN             NaN             NaN
             NaN             NaN             NaN
             NaN             NaN             NaN
             NaN             NaN             NaN
             NaN             NaN             NaN
             NaN             NaN             NaN
             NaN             NaN             NaN
             NaN             NaN             NaN
             NaN             NaN             NaN
             NaN             NaN             NaN
             NaN             NaN             NaN
             NaN             NaN             NaN
             NaN             NaN             NaN
             NaN             NaN             NaN
             NaN             NaN             NaN
             NaN             NaN             NaN
             NaN             NaN             NaN
             NaN             NaN             NaN
             NaN             NaN             NaN
             NaN             NaN             NaN
             NaN             NaN             NaN
             NaN             NaN             NaN
             NaN             NaN             NaN
             NaN             NaN             NaN
             NaN             NaN             NaN
             NaN             NaN             NaN
             NaN             NaN             NaN
