Al   Hf   N                             
   1.00000000000000     
     9.4355625638899010   -0.0000067470273311    0.0000209576115201
    -4.7177759187323103    8.1732075075037791    0.0006337591469242
    -0.0000209166395711    0.0010087186345144   10.0792463201389584
   Al   Hf   N 
    35     1    36
Direct
  0.2219577396559487  0.1107034651566039  0.3058646991138971
  0.1094121906986913  0.2196352673627757  0.0570412259732294
  0.8901150356528049  0.1118018855563605  0.8040207005502111
  0.7775451173914973  0.2218781527179203  0.5567829464150407
  0.5564476981121942  0.1109789763578064  0.3053148559645464
  0.4434351407636754  0.2196352653075024  0.0570412358193977
  0.2213613850462792  0.1095106574906808  0.8078112139091260
  0.1159732664835076  0.2232634713762565  0.5534954657133824
  0.8877432920693948  0.1109789695458474  0.3053148499676581
  0.7776210085871966  0.2220299445994058  0.0550131322495133
  0.5548989632477088  0.1118018751558552  0.8040207005669089
  0.4405022659333753  0.2232634469548671  0.5534954691799214
  0.2199410017755525  0.4420833425566073  0.3002167550566881
  0.1096678428722555  0.5568713233805127  0.0575655952923881
  0.8890764276713199  0.4449407572559565  0.8063362353259080
  0.7835931792321134  0.5557169685270722  0.5567705314963121
  0.5553543030838526  0.4420833450123851  0.3002167587968430
  0.4447408004065423  0.5562695871963541  0.0542737645498050
  0.2137986257330837  0.4413553449841174  0.8149910828252658
  0.1053358439286995  0.5557169669222475  0.5567705172492907
  0.8881981616612933  0.4431843521449181  0.3069297487976499
  0.7804154858606864  0.5568713065677997  0.0575655881460619
  0.5607687881587680  0.4413553168167113  0.8149910895744483
  0.2225411484241775  0.7780415947836374  0.3068716067115815
  0.1107590334319895  0.8883060176084854  0.0569464393201713
  0.8894791130999025  0.7779819040631182  0.8064058238776823
  0.7822797589619768  0.8947608853355646  0.5553971396209292
  0.5577906655986240  0.7823693367100404  0.2996762832617890
  0.4438153741906419  0.8901728291300088  0.0549411700852431
  0.2217148940629343  0.7779819026697368  0.8064058225072372
  0.1106975934882470  0.8881831113220215  0.5571106206499294
  0.8887124534725999  0.7780415878343021  0.3068716091640056
  0.7795694928775276  0.8901728106547608  0.0549411669492201
  0.5587850059180184  0.7843579140043602  0.8087155112259978
  0.4456931832784718  0.8947608650385206  0.5553971435104188
  0.4375314292192201  0.5418507555338010  0.5619278544452087
  0.1092339886867606  0.2211861953888032  0.3614286755377591
  0.2216303834586313  0.1100487442678499  0.1158689761426288
  0.7777684984852442  0.2223248895049394  0.8640373865402182
  0.8922570054580419  0.1132913155898692  0.6138108876853892
  0.4451642090942585  0.2211861843827307  0.3614286747927125
  0.5564490864496179  0.1108581279684344  0.1150900081756561
  0.1097176882468176  0.2194504478991490  0.8682106002752548
  0.2196436501226700  0.1060752431447582  0.6187172267711247
  0.7775788599080116  0.2219457073252968  0.3657921898522076
  0.8876210734354970  0.1108581109541689  0.1150900036216029
  0.4429448572695946  0.2194504274473559  0.8682106144055055
  0.5542463690469646  0.1132912990115216  0.6138108868475243
  0.1117113063964155  0.5547928051329833  0.3654944847309878
  0.2211805381485377  0.4440823461666383  0.1104885246296092
  0.7818902314335645  0.5577976391564974  0.8691092089214507
  0.8886888546401153  0.4441656694845761  0.6159576091402315
  0.4462007404965718  0.5591895242575333  0.3476339503869994
  0.5561137944693471  0.4440823477462743  0.1104885282579033
  0.1091194893987577  0.5577976436789953  0.8691092128573885
  0.1949394753816023  0.4354056306807408  0.6285174327956113
  0.7762934533320660  0.5547928008012804  0.3654944981148986
  0.8883866718566580  0.4435613574920438  0.1170921953380599
  0.4443666643752948  0.5555212464532815  0.8585130758958499
  0.5736781920451435  0.4354055874104787  0.6285174505581352
  0.1108264012858129  0.8884408010120453  0.3663811623449433
  0.2225375124415407  0.7782849109424319  0.1167478110051547
  0.7800692203419501  0.8901888270135174  0.8654009214692380
  0.8880378303992558  0.7773993675570168  0.6150748004690172
  0.4449335340282374  0.8889046159019784  0.3644675375277941
  0.5564471931337849  0.7796823679269238  0.1097113354202861
  0.1105354706622990  0.8878588448531630  0.8668496847620872
  0.2225735826901811  0.7773993630022602  0.6150747998407340
  0.7771830831295787  0.8889046154624296  0.3644675353759936
  0.8889594122383002  0.7782848958295432  0.1167478115017673
  0.4433317038421052  0.8901888184345808  0.8654009232137980
  0.5652341276026149  0.7972561922436512  0.6192889600096620
 
             NaN             NaN             NaN
             NaN             NaN             NaN
             NaN             NaN             NaN
             NaN             NaN             NaN
             NaN             NaN             NaN
             NaN             NaN             NaN
             NaN             NaN             NaN
             NaN             NaN             NaN
             NaN             NaN             NaN
             NaN             NaN             NaN
             NaN             NaN             NaN
             NaN             NaN             NaN
             NaN             NaN             NaN
             NaN             NaN             NaN
             NaN             NaN             NaN
             NaN             NaN             NaN
             NaN             NaN             NaN
             NaN             NaN             NaN
             NaN             NaN             NaN
             NaN             NaN             NaN
             NaN             NaN             NaN
             NaN             NaN             NaN
             NaN             NaN             NaN
             NaN             NaN             NaN
             NaN             NaN             NaN
             NaN             NaN             NaN
             NaN             NaN             NaN
             NaN             NaN             NaN
             NaN             NaN             NaN
             NaN             NaN             NaN
             NaN             NaN             NaN
             NaN             NaN             NaN
             NaN             NaN             NaN
             NaN             NaN             NaN
             NaN             NaN             NaN
             NaN             NaN             NaN
             NaN             NaN             NaN
             NaN             NaN             NaN
             NaN             NaN             NaN
             NaN             NaN             NaN
             NaN             NaN             NaN
             NaN             NaN             NaN
             NaN             NaN             NaN
             NaN             NaN             NaN
             NaN             NaN             NaN
             NaN             NaN             NaN
             NaN             NaN             NaN
             NaN             NaN             NaN
             NaN             NaN             NaN
             NaN             NaN             NaN
             NaN             NaN             NaN
             NaN             NaN             NaN
             NaN             NaN             NaN
             NaN             NaN             NaN
             NaN             NaN             NaN
             NaN             NaN             NaN
             NaN             NaN             NaN
             NaN             NaN             NaN
             NaN             NaN             NaN
             NaN             NaN             NaN
             NaN             NaN             NaN
             NaN             NaN             NaN
             NaN             NaN             NaN
             NaN             NaN             NaN
             NaN             NaN             NaN
             NaN             NaN             NaN
             NaN             NaN             NaN
             NaN             NaN             NaN
             NaN             NaN             NaN
             NaN             NaN             NaN
             NaN             NaN             NaN
             NaN             NaN             NaN
