Al   Hf   N                             
   1.00000000000000     
     9.5982097564568427   -0.0000058655322348    0.0000237345558055
    -4.7991056145966446    8.3059461635611189    0.0003377363101880
    -0.0000145898133807   -0.0086963839062075    9.6468083537032321
   Al   Hf   N 
    35     1    36
Direct
  0.2220891923351260  0.1110162692116887  0.3294264793998067
  0.1089139939054533  0.2184240092180474  0.0804076726094678
  0.8900919770281845  0.1112518392186885  0.8256439646030884
  0.7776367949368037  0.2221095426614070  0.5800177706013869
  0.5570882974927187  0.1114409624726704  0.3283787001821068
  0.4426722403944083  0.2184218908434374  0.0804078972064488
  0.2214276426615598  0.1096924079637844  0.8284913077595846
  0.1141740744103430  0.2235045579181332  0.5749941723004639
  0.8875155330596840  0.1114411349144859  0.3283763936866890
  0.7774846625141194  0.2218078501888385  0.0763072017320425
  0.5543223080319208  0.1112514646721792  0.8256409608192925
  0.4424932991593593  0.2235057284755726  0.5749936029981626
  0.2219264944365378  0.4432252307797313  0.3224708239365910
  0.1092392216649429  0.5575880579756571  0.0814167631193214
  0.8895262566426894  0.4458892727747283  0.8279292631193371
  0.7837641308781329  0.5559525169744219  0.5767857606272528
  0.5544609947046553  0.4432247839303542  0.3224678310220881
  0.4447610731459548  0.5563607419500016  0.0749135445070621
  0.2095842879312642  0.4395946894949319  0.8398513913350811
  0.1053526712714046  0.5559542446035408  0.5767853431360237
  0.8877816854562823  0.4424006884452183  0.3288201085365259
  0.7815133070903784  0.5575892949844246  0.0814171054292885
  0.5631735748154014  0.4395940762437007  0.8398558174200659
  0.2228312809052611  0.7788166029163648  0.3286654251538934
  0.1111136116227769  0.8890659274993524  0.0786720876457636
  0.8895742405096598  0.7778879390940858  0.8283756850565993
  0.7812347317659274  0.8937558089557527  0.5768559541862075
  0.5571496950521677  0.7811367016096042  0.3230777635584587
  0.4438194868550198  0.8905213699971384  0.0777030079679477
  0.2214766671675505  0.7778881953207062  0.8283774913618345
  0.1104663825509959  0.8877693209853206  0.5789178029332191
  0.8891472520840651  0.7788165414267141  0.3286679532566481
  0.7798645150254870  0.8905204729272711  0.0777028402471771
  0.5596282249355440  0.7860938899252758  0.8312346912509980
  0.4456825061640330  0.8937542393449718  0.5768550277364923
  0.4364034072182363  0.5396395038323192  0.5956696887792887
  0.1096759693413603  0.2221522474861857  0.3760491344854486
  0.2215031357104209  0.1098442596819851  0.1321472928085328
  0.7777917894588171  0.2224220920472746  0.8777997082681281
  0.8916394837696231  0.1123318992472377  0.6283931248147496
  0.4456387340034809  0.2221528059418674  0.3760482824124125
  0.5570647953900121  0.1111877589301571  0.1307254048467001
  0.1090567333196404  0.2179751733511708  0.8840043757895373
  0.2202554309659916  0.1073483177896293  0.6313410625808871
  0.7776447243176321  0.2221256292520337  0.3819613492885097
  0.8872858954948910  0.1111880399262120  0.1307230861141377
  0.4420808209791076  0.2179730708555354  0.8840048051532463
  0.5538548891762076  0.1123313632527143  0.6283900184179458
  0.1117725139173587  0.5551022397052492  0.3782196781910017
  0.2218742194408776  0.4444481467271046  0.1238126122199930
  0.7834711918217110  0.5586161655505464  0.8857986057734095
  0.8892641962483481  0.4453642277283407  0.6300114362887896
  0.4463677541206010  0.5595714809684011  0.3674233361340100
  0.5557364988109086  0.4444478228310800  0.1238093035433252
  0.1083086831459497  0.5586150119919466  0.8857979561563525
  0.1904846453836555  0.4335909519085561  0.6444796178727543
  0.7764909105986035  0.5551009104744082  0.3782197893228556
  0.8879268720295528  0.4426907724942026  0.1322777679769302
  0.4435851462122926  0.5540078628691560  0.8683707238455298
  0.5762707632025013  0.4335894104480502  0.6444839655215588
  0.1108220454830757  0.8884810994119405  0.3813067718691556
  0.2226849331915588  0.7793586180926297  0.1316516811331994
  0.7803633509445902  0.8901429577608013  0.8807206314429479
  0.8879195922893928  0.7772142679426750  0.6296363816456747
  0.4448562180239009  0.8891014760475997  0.3787265158458055
  0.5560836867837367  0.7790047659930153  0.1238936784980282
  0.1107824271410180  0.8884030179956284  0.8810229267264731
  0.2224573822630376  0.7772147363532369  0.6296381441767096
  0.7774079030440930  0.8891028326118331  0.3787272701995903
  0.8898358772644670  0.7793587337511667  0.1316540457965232
  0.4429432655821515  0.8901438247536788  0.8807207335599685
  0.5656110891951158  0.7980597449577260  0.6334539106790373
 
             NaN             NaN             NaN
             NaN             NaN             NaN
             NaN             NaN             NaN
             NaN             NaN             NaN
             NaN             NaN             NaN
             NaN             NaN             NaN
             NaN             NaN             NaN
             NaN             NaN             NaN
             NaN             NaN             NaN
             NaN             NaN             NaN
             NaN             NaN             NaN
             NaN             NaN             NaN
             NaN             NaN             NaN
             NaN             NaN             NaN
             NaN             NaN             NaN
             NaN             NaN             NaN
             NaN             NaN             NaN
             NaN             NaN             NaN
             NaN             NaN             NaN
             NaN             NaN             NaN
             NaN             NaN             NaN
             NaN             NaN             NaN
             NaN             NaN             NaN
             NaN             NaN             NaN
             NaN             NaN             NaN
             NaN             NaN             NaN
             NaN             NaN             NaN
             NaN             NaN             NaN
             NaN             NaN             NaN
             NaN             NaN             NaN
             NaN             NaN             NaN
             NaN             NaN             NaN
             NaN             NaN             NaN
             NaN             NaN             NaN
             NaN             NaN             NaN
             NaN             NaN             NaN
             NaN             NaN             NaN
             NaN             NaN             NaN
             NaN             NaN             NaN
             NaN             NaN             NaN
             NaN             NaN             NaN
             NaN             NaN             NaN
             NaN             NaN             NaN
             NaN             NaN             NaN
             NaN             NaN             NaN
             NaN             NaN             NaN
             NaN             NaN             NaN
             NaN             NaN             NaN
             NaN             NaN             NaN
             NaN             NaN             NaN
             NaN             NaN             NaN
             NaN             NaN             NaN
             NaN             NaN             NaN
             NaN             NaN             NaN
             NaN             NaN             NaN
             NaN             NaN             NaN
             NaN             NaN             NaN
             NaN             NaN             NaN
             NaN             NaN             NaN
             NaN             NaN             NaN
             NaN             NaN             NaN
             NaN             NaN             NaN
             NaN             NaN             NaN
             NaN             NaN             NaN
             NaN             NaN             NaN
             NaN             NaN             NaN
             NaN             NaN             NaN
             NaN             NaN             NaN
             NaN             NaN             NaN
             NaN             NaN             NaN
             NaN             NaN             NaN
             NaN             NaN             NaN
