Al   Hf   N                             
   1.00000000000000     
     9.9435670116818429   -0.0000051015698180    0.0000261412408528
    -4.9717867967103802    8.5964607926225227    0.0000811831850166
    -0.0000019593646435   -0.0034459206328361    8.6107950053624851
   Al   Hf   N 
    35     1    36
Direct
  0.2221293244522826  0.1110964892305688  0.3495260886967486
  0.1090573715251395  0.2178707843836065  0.0976474264481766
  0.8896585111904116  0.1113966530328909  0.8435619533136034
  0.7780094506260653  0.2228543873201119  0.5982104887966884
  0.5566201650156017  0.1117869825816840  0.3492975448247719
  0.4419750765527581  0.2178667369878866  0.0976411440943608
  0.2215924238582900  0.1100214602479284  0.8436797896633834
  0.1158632566820046  0.2242981162904982  0.5956251799869818
  0.8883290732849360  0.1117865387664310  0.3492979647355057
  0.7770584182827704  0.2209564635693440  0.0949397878166991
  0.5549001378523784  0.1113955711768639  0.8435506270765458
  0.4415974804110618  0.2243000307169822  0.5956197820275193
  0.2160842672445256  0.4408099094883724  0.3376867389215619
  0.1091390689963845  0.5577363505783026  0.0989184420251092
  0.8893619682884264  0.4455599849338370  0.8478518918324767
  0.7872749618889046  0.5587089504584384  0.5923318998612572
  0.5578862955192392  0.4408093287945505  0.3376703312983906
  0.4444535513854788  0.5557468212227690  0.0991514407203979
  0.2116693866202510  0.4406005225620717  0.8577671136331659
  0.1045977499108588  0.5587116551522939  0.5923332560202894
  0.8875981617615167  0.4420343056666809  0.3438376308005857
  0.7817631244825591  0.5577383306986547  0.0989164567477729
  0.5620963059263744  0.4405987623178760  0.8577682391586592
  0.2230161955598504  0.7794153285888257  0.3443350567419614
  0.1116298288231903  0.8900985699969226  0.0972332444383071
  0.8897416560481730  0.7780545365727107  0.8485799548776143
  0.7809382310454964  0.8924022033158465  0.5969635483338323
  0.5581075187465245  0.7830524059210546  0.3429580955302924
  0.4443203798980662  0.8911729729623161  0.0967266345069930
  0.2214765181916363  0.7780550885457203  0.8485817203583537
  0.1092319987148755  0.8853004985154058  0.5953849880864510
  0.8895602025890668  0.7794150373129298  0.3443406905644153
  0.7800149518725874  0.8911713504875536  0.0967290535035659
  0.5583706112455644  0.7835795370401186  0.8533506296399196
  0.4446247763130344  0.8924001739120584  0.5969569323312172
  0.4363037515970021  0.5394373734990694  0.6045187680657662
  0.1100000051186214  0.2216672746065100  0.3595020089328997
  0.2217670080867151  0.1103716765497609  0.1149888034104833
  0.7776898255332299  0.2222197185947508  0.8595173379378238
  0.8912956976147228  0.1121241707661511  0.6104746829551857
  0.4448304107293453  0.2216702096838290  0.3595040375926644
  0.5568488664873854  0.1115939393435426  0.1132188351067569
  0.1097322547743929  0.2190331811467487  0.8646440659261785
  0.2178477258258269  0.1025327842697550  0.6103649621943745
  0.7776197296192677  0.2220751010006552  0.3646003142624252
  0.8879078036217933  0.1115943311949152  0.1132106143997902
  0.4424632218525417  0.2190288977844332  0.8646471611064470
  0.5539904963756186  0.1121233831577868  0.6104700282946780
  0.1104769305986864  0.5564315010997021  0.3570933475552849
  0.2201041350292172  0.4432865881907802  0.1077104503139452
  0.7824859321022544  0.5580857422166190  0.8697287619892293
  0.8894556470218120  0.4457479019717070  0.6121973502740587
  0.4447816310943224  0.5563964695955406  0.3478450100391512
  0.5563447899253546  0.4432856142342771  0.1077040943442640
  0.1087650295172224  0.5580834449197241  0.8697254934179881
  0.1929815065428926  0.4385873427829736  0.6192587258458673
  0.7791123953945416  0.5564282892544412  0.3570947272703791
  0.8874399819148096  0.4417166876945373  0.1136024826052378
  0.4437886417089771  0.5544160880344364  0.8644744491067158
  0.5787704768807842  0.4385846941652716  0.6192772799724793
  0.1103929044108654  0.8876227748815708  0.3613403334968268
  0.2233758465373654  0.7801103762877943  0.1127697329477186
  0.7795501585975941  0.8898465825004820  0.8624138185565613
  0.8885567608514009  0.7775080041677853  0.6120181002544882
  0.4442459791307769  0.8890856891644461  0.3607805345236628
  0.5565357908150119  0.7799092515964006  0.1077929558474153
  0.1108539087750060  0.8885462426488573  0.8638730105357624
  0.2221141417103141  0.7775092316865653  0.6120219135351661
  0.7780020777145680  0.8890876734880919  0.3607804115801230
  0.8898967915194476  0.7801104473634979  0.1127741260001045
  0.4434609187406053  0.8898485363018906  0.8624155675674317
  0.5626617025407015  0.7921614471338145  0.6126978433871599
 
             NaN             NaN             NaN
             NaN             NaN             NaN
             NaN             NaN             NaN
             NaN             NaN             NaN
             NaN             NaN             NaN
             NaN             NaN             NaN
             NaN             NaN             NaN
             NaN             NaN             NaN
             NaN             NaN             NaN
             NaN             NaN             NaN
             NaN             NaN             NaN
             NaN             NaN             NaN
             NaN             NaN             NaN
             NaN             NaN             NaN
             NaN             NaN             NaN
             NaN             NaN             NaN
             NaN             NaN             NaN
             NaN             NaN             NaN
             NaN             NaN             NaN
             NaN             NaN             NaN
             NaN             NaN             NaN
             NaN             NaN             NaN
             NaN             NaN             NaN
             NaN             NaN             NaN
             NaN             NaN             NaN
             NaN             NaN             NaN
             NaN             NaN             NaN
             NaN             NaN             NaN
             NaN             NaN             NaN
             NaN             NaN             NaN
             NaN             NaN             NaN
             NaN             NaN             NaN
             NaN             NaN             NaN
             NaN             NaN             NaN
             NaN             NaN             NaN
             NaN             NaN             NaN
             NaN             NaN             NaN
             NaN             NaN             NaN
             NaN             NaN             NaN
             NaN             NaN             NaN
             NaN             NaN             NaN
             NaN             NaN             NaN
             NaN             NaN             NaN
             NaN             NaN             NaN
             NaN             NaN             NaN
             NaN             NaN             NaN
             NaN             NaN             NaN
             NaN             NaN             NaN
             NaN             NaN             NaN
             NaN             NaN             NaN
             NaN             NaN             NaN
             NaN             NaN             NaN
             NaN             NaN             NaN
             NaN             NaN             NaN
             NaN             NaN             NaN
             NaN             NaN             NaN
             NaN             NaN             NaN
             NaN             NaN             NaN
             NaN             NaN             NaN
             NaN             NaN             NaN
             NaN             NaN             NaN
             NaN             NaN             NaN
             NaN             NaN             NaN
             NaN             NaN             NaN
             NaN             NaN             NaN
             NaN             NaN             NaN
             NaN             NaN             NaN
             NaN             NaN             NaN
             NaN             NaN             NaN
             NaN             NaN             NaN
             NaN             NaN             NaN
             NaN             NaN             NaN
