Al   Hf   N                             
   1.00000000000000     
     9.6634973261161985   -0.0000057479995553    0.0000241048150435
    -4.8317501529658635    8.3609070530757066    0.0002982665986232
    -0.0000124826069538   -0.0081557016571967    9.4596082696312767
   Al   Hf   N 
    35     1    36
Direct
  0.2221253475309126  0.1110887193981966  0.3321378070360623
  0.1087018006722928  0.2178552972897094  0.0825364442253047
  0.8902189650234504  0.1112342713786347  0.8272916254055644
  0.7777474811789133  0.2223304877784429  0.5824640981780647
  0.5572363870368946  0.1114904768552805  0.3309957562031443
  0.4423155482582715  0.2178524352759013  0.0825366612572154
  0.2213786986576309  0.1095945442097701  0.8297377783957103
  0.1145973199753314  0.2240805954678180  0.5770399425285859
  0.8874169176374309  0.1114906288273758  0.3309922076026552
  0.7773920040594220  0.2216231071669270  0.0779777175893557
  0.5541775793911512  0.1112338111108144  0.8272873592122494
  0.4426459333353350  0.2240822066656420  0.5770392231820622
  0.2214368991847806  0.4428714333194748  0.3237012469068432
  0.1090226272216483  0.5577955205667848  0.0839331655531623
  0.8897028742479804  0.4462425590974917  0.8298929904415786
  0.7840338455767153  0.5562686541558648  0.5779944145111884
  0.5545968015661984  0.4428709405115256  0.3236968859910050
  0.4447636297993824  0.5563663228660687  0.0780332400738999
  0.2093446887471160  0.4396659374553948  0.8430393592973928
  0.1053992175553020  0.5562708996630974  0.5779940702138120
  0.8875771906270629  0.4419916035795026  0.3306095263351310
  0.7819380667179985  0.5577972930852866  0.0839335540620070
  0.5634844398945589  0.4396651780254857  0.8430454777572365
  0.2229805327442804  0.7790600615528547  0.3304381281932152
  0.1112568862856023  0.8893529293129347  0.0807054777377445
  0.8896429183332444  0.7778120502735675  0.8304823068285998
  0.7810064682933486  0.8933951688366406  0.5790741468269758
  0.5572552299815214  0.7813476856725003  0.3249698599748427
  0.4438277795253924  0.8908183819164108  0.0797371931844779
  0.2213321367775265  0.7778124121310483  0.8304850723217427
  0.1101746508590651  0.8871855593025231  0.5806339493840014
  0.8892413262720424  0.7790600497623856  0.3304416769679861
  0.7801532313599751  0.8908170881843560  0.0797368265529883
  0.5595271941999158  0.7858919815459799  0.8341848365778120
  0.4455496250184652  0.8933930493422508  0.5790729111779740
  0.4363250629950315  0.5394817901021938  0.5982616275967985
  0.1097193910729573  0.2223194614190191  0.3739853793765278
  0.2214815688987386  0.1098012700336568  0.1307416664540071
  0.7777948029538280  0.2224286864837524  0.8753090886979535
  0.8917137530326542  0.1122711470974735  0.6260903179854225
  0.4457624700172502  0.2223204177239921  0.3739843536128689
  0.5572051307673291  0.1112721315917824  0.1290951439378958
  0.1090912559579351  0.2177428753021289  0.8819841221706142
  0.2199261836450646  0.1066899848453957  0.6284548038627449
  0.7776488837814028  0.2221334867169418  0.3804593217110295
  0.8872299276119477  0.1112724411543624  0.1290916481707356
  0.4418138438562380  0.2177401357967312  0.8819846199651451
  0.5537196981231887  0.1122704703732680  0.6260859030538626
  0.1117353044678566  0.5551708576915644  0.3752578337826264
  0.2215817650291569  0.4442057266243538  0.1209633807382104
  0.7838133346150471  0.5588085571519485  0.8844444546780252
  0.8894640030974728  0.4457637418097065  0.6277458548205956
  0.4462361822465724  0.5593077017285495  0.3646962995772753
  0.5557865789972354  0.4442053406552304  0.1209585826694948
  0.1081590421768084  0.5588069461855625  0.8844436583453827
  0.1904851088055750  0.4343185809189478  0.6425502340965039
  0.7765963339019919  0.5551691142840554  0.3752578166238933
  0.8877189176452305  0.4422747584574154  0.1303177171813132
  0.4434604428510909  0.5537588206393522  0.8669623235489539
  0.5769981141187301  0.4343167368432646  0.6425560832079000
  0.1107147723104518  0.8882662609207657  0.3791286960352878
  0.2228261954575999  0.7796730919323949  0.1296215521080697
  0.7805336962536344  0.8902329498256520  0.8787055322989659
  0.8879362232735630  0.7771083105057173  0.6275741286397860
  0.4448080268493584  0.8889544915832488  0.3767648620708428
  0.5562090249779530  0.7792553787647023  0.1214478861997250
  0.1108416695586243  0.8885219024071063  0.8790188711090394
  0.2223347928870183  0.7771088935970027  0.6275768216387263
  0.7773091600729600  0.8889563628494415  0.3767658424149687
  0.8900090491329067  0.7796732945325076  0.1296248750196085
  0.4428632532889480  0.8902342223542163  0.8787057898824386
  0.5651440728948813  0.7971258225592948  0.6315317958141122
 
             NaN             NaN             NaN
             NaN             NaN             NaN
             NaN             NaN             NaN
             NaN             NaN             NaN
             NaN             NaN             NaN
             NaN             NaN             NaN
             NaN             NaN             NaN
             NaN             NaN             NaN
             NaN             NaN             NaN
             NaN             NaN             NaN
             NaN             NaN             NaN
             NaN             NaN             NaN
             NaN             NaN             NaN
             NaN             NaN             NaN
             NaN             NaN             NaN
             NaN             NaN             NaN
             NaN             NaN             NaN
             NaN             NaN             NaN
             NaN             NaN             NaN
             NaN             NaN             NaN
             NaN             NaN             NaN
             NaN             NaN             NaN
             NaN             NaN             NaN
             NaN             NaN             NaN
             NaN             NaN             NaN
             NaN             NaN             NaN
             NaN             NaN             NaN
             NaN             NaN             NaN
             NaN             NaN             NaN
             NaN             NaN             NaN
             NaN             NaN             NaN
             NaN             NaN             NaN
             NaN             NaN             NaN
             NaN             NaN             NaN
             NaN             NaN             NaN
             NaN             NaN             NaN
             NaN             NaN             NaN
             NaN             NaN             NaN
             NaN             NaN             NaN
             NaN             NaN             NaN
             NaN             NaN             NaN
             NaN             NaN             NaN
             NaN             NaN             NaN
             NaN             NaN             NaN
             NaN             NaN             NaN
             NaN             NaN             NaN
             NaN             NaN             NaN
             NaN             NaN             NaN
             NaN             NaN             NaN
             NaN             NaN             NaN
             NaN             NaN             NaN
             NaN             NaN             NaN
             NaN             NaN             NaN
             NaN             NaN             NaN
             NaN             NaN             NaN
             NaN             NaN             NaN
             NaN             NaN             NaN
             NaN             NaN             NaN
             NaN             NaN             NaN
             NaN             NaN             NaN
             NaN             NaN             NaN
             NaN             NaN             NaN
             NaN             NaN             NaN
             NaN             NaN             NaN
             NaN             NaN             NaN
             NaN             NaN             NaN
             NaN             NaN             NaN
             NaN             NaN             NaN
             NaN             NaN             NaN
             NaN             NaN             NaN
             NaN             NaN             NaN
             NaN             NaN             NaN
