Al   Hf   N                             
   1.00000000000000     
     9.4355582291930435   -0.0000068057936708    0.0000207724819011
    -4.7177734805289342    8.1732043793833693    0.0006534940027066
    -0.0000208259481659    0.0010048370826403   10.0792509117095879
   Al   Hf   N 
    35     1    36
Direct
  0.2219603500999057  0.1107049881727704  0.3044552075058178
  0.1094149461326168  0.2196370664197929  0.0556321437307332
  0.8901176625660412  0.1118039177393158  0.8026125861863278
  0.7775478036307604  0.2218798196575733  0.5553730940627943
  0.5564498549054591  0.1109804056833781  0.3039053964353542
  0.4434378743432248  0.2196370615291485  0.0556321554817956
  0.2213640624227864  0.1095122993069140  0.8064034266209461
  0.1159762346829396  0.2232653312652459  0.5520892054530080
  0.8877462597293047  0.1109803988458253  0.3039053888362631
  0.7776236863412791  0.2220316176824610  0.0536039655462730
  0.5549020781183813  0.1118039064274114  0.8026125859951136
  0.4405048697511944  0.2232653161587095  0.5520892106493989
  0.2199430095078156  0.4420838951163333  0.2988094722039207
  0.1096704481841613  0.5568726754933877  0.0561569267095834
  0.8890792775042513  0.4449427353504589  0.8049260749992300
  0.7835959604210245  0.5557189240993878  0.5553604479553869
  0.5553565408594068  0.4420838952774915  0.2988094782772777
  0.4447432470531965  0.5562707785420216  0.0528681742493617
  0.2138022640126351  0.4413580677624083  0.8135829631996359
  0.1053387379670667  0.5557189157546176  0.5553604356724833
  0.8882006175061221  0.4431855628198136  0.3055199682372987
  0.7804179350301581  0.5568726608767633  0.0561569267536939
  0.5607716017025766  0.4413580422507835  0.8135829721910284
  0.2225438710394698  0.7780430964770773  0.3054617085439020
  0.1107614548773412  0.8883071623556873  0.0555364040349033
  0.8894818213646118  0.7779835586080992  0.8049954900467213
  0.7822824828914250  0.8947630822374322  0.5539880815610587
  0.5577935016242463  0.7823713150512077  0.2982672312709838
  0.4438177021875660  0.8901743886725910  0.0535316541048871
  0.2217175669065767  0.7779835565444557  0.8049954892924376
  0.1107005104085772  0.8881852186847325  0.5557005067662857
  0.8887149297602051  0.7780430912980876  0.3054617132208577
  0.7795724250627529  0.8901743748776525  0.0535316500444338
  0.5587876159652438  0.7843594085045993  0.8073090037280224
  0.4456963738952240  0.8947630625394751  0.5539880838572486
  0.4375347993807637  0.5418537756727488  0.5605190791404340
  0.1092363861398056  0.2211869620039764  0.3600218328993918
  0.2216328824327221  0.1100500450843001  0.1144597417021131
  0.7777714222123393  0.2223270330031113  0.8626290084554213
  0.8922595719625548  0.1132932762804373  0.6124031090149842
  0.4451662753429559  0.2211869514801492  0.3600218355035736
  0.5564514626823822  0.1108595640716814  0.1136810871039415
  0.1097206249391576  0.2194526431725592  0.8668019534554148
  0.2196460942875618  0.1060764196913837  0.6173098198500426
  0.7775812503751780  0.2219467925990770  0.3643827512544817
  0.8876238249563357  0.1108595550405127  0.1136810793985674
  0.4429478220486303  0.2194526239193095  0.8668019681689003
  0.5542494737999633  0.1132932602598089  0.6124031058328185
  0.1117136959350873  0.5547941749798682  0.3640852388456111
  0.2211825478927949  0.4440833190728526  0.1090812755030726
  0.7818931755539111  0.5577995122047525  0.8677005326868397
  0.8886916205173918  0.4441674735093315  0.6145478465100069
  0.4462034116445537  0.5591911795621698  0.3462252818934104
  0.5561164589545839  0.4440833158266173  0.1090812833860895
  0.1091221398847537  0.5577995133221236  0.8677005301666085
  0.1949429476276450  0.4354084494610646  0.6271093540999502
  0.7762961301387818  0.5547941696994485  0.3640852469304576
  0.8883892054113787  0.4435627196495773  0.1156831174890200
  0.4443694769775277  0.5555231463663901  0.8571072763200576
  0.5736812760657699  0.4354084170881265  0.6271093751341965
  0.1108288929394305  0.8884420855835984  0.3649714516256353
  0.2225400399933193  0.7782862964917925  0.1153385118259322
  0.7800724347970416  0.8901906687615337  0.8639923466188932
  0.8880406847703597  0.7774012303248270  0.6136651493523857
  0.4449361317802811  0.8889060274737162  0.3630588501930774
  0.5564500796093412  0.7796844361410677  0.1083026447485977
  0.1105379724050337  0.8878601229996264  0.8654402592445720
  0.2225763225459332  0.7774012165061635  0.6136651514148639
  0.7771855895675088  0.8889060252385050  0.3630588488526740
  0.8889619747810542  0.7782862864364475  0.1153385143971590
  0.4433340530886341  0.8901906596996696  0.8639923513433345
  0.5652370479719266  0.7972583110417943  0.6178819243814857
 
             NaN             NaN             NaN
             NaN             NaN             NaN
             NaN             NaN             NaN
             NaN             NaN             NaN
             NaN             NaN             NaN
             NaN             NaN             NaN
             NaN             NaN             NaN
             NaN             NaN             NaN
             NaN             NaN             NaN
             NaN             NaN             NaN
             NaN             NaN             NaN
             NaN             NaN             NaN
             NaN             NaN             NaN
             NaN             NaN             NaN
             NaN             NaN             NaN
             NaN             NaN             NaN
             NaN             NaN             NaN
             NaN             NaN             NaN
             NaN             NaN             NaN
             NaN             NaN             NaN
             NaN             NaN             NaN
             NaN             NaN             NaN
             NaN             NaN             NaN
             NaN             NaN             NaN
             NaN             NaN             NaN
             NaN             NaN             NaN
             NaN             NaN             NaN
             NaN             NaN             NaN
             NaN             NaN             NaN
             NaN             NaN             NaN
             NaN             NaN             NaN
             NaN             NaN             NaN
             NaN             NaN             NaN
             NaN             NaN             NaN
             NaN             NaN             NaN
             NaN             NaN             NaN
             NaN             NaN             NaN
             NaN             NaN             NaN
             NaN             NaN             NaN
             NaN             NaN             NaN
             NaN             NaN             NaN
             NaN             NaN             NaN
             NaN             NaN             NaN
             NaN             NaN             NaN
             NaN             NaN             NaN
             NaN             NaN             NaN
             NaN             NaN             NaN
             NaN             NaN             NaN
             NaN             NaN             NaN
             NaN             NaN             NaN
             NaN             NaN             NaN
             NaN             NaN             NaN
             NaN             NaN             NaN
             NaN             NaN             NaN
             NaN             NaN             NaN
             NaN             NaN             NaN
             NaN             NaN             NaN
             NaN             NaN             NaN
             NaN             NaN             NaN
             NaN             NaN             NaN
             NaN             NaN             NaN
             NaN             NaN             NaN
             NaN             NaN             NaN
             NaN             NaN             NaN
             NaN             NaN             NaN
             NaN             NaN             NaN
             NaN             NaN             NaN
             NaN             NaN             NaN
             NaN             NaN             NaN
             NaN             NaN             NaN
             NaN             NaN             NaN
             NaN             NaN             NaN
