Al   Hf   N                             
   1.00000000000000     
     9.9026419966758095   -0.0000052191024975    0.0000257709816147
    -4.9513240958083564    8.5621182268663656    0.0001206528965815
    -0.0000047056197528   -0.0042995978969728    8.7359818215563809
   Al   Hf   N 
    35     1    36
Direct
  0.2221642862758344  0.1111664449414533  0.3462579115674487
  0.1088607191079021  0.2175142898537459  0.0944511164925288
  0.8899225182908310  0.1113265013689713  0.8394612152597531
  0.7780292042758816  0.2228934346103557  0.5951477801238028
  0.5569329936813787  0.1118040538549749  0.3456332904235069
  0.4418152993674767  0.2175101101065664  0.0944475996942273
  0.2215234140189892  0.1098836072208940  0.8398405742101218
  0.1159070486133373  0.2246301364574492  0.5914206918057516
  0.8880333694245479  0.1118037439845878  0.3456302322127627
  0.7770890212851072  0.2210180184766060  0.0906766299176738
  0.5545660120826739  0.1113255687710648  0.8394516007535344
  0.4418855250188116  0.2246322805874712  0.5914174656314728
  0.2171317924616005  0.4410276947036991  0.3340344497026848
  0.1089694535427626  0.5578314246833145  0.0962498807234482
  0.8896334638536487  0.4461032169099681  0.8437124786334849
  0.7867180086382035  0.5583465991738379  0.5882716871301881
  0.5570572254246287  0.4410270042027591  0.3340215888887812
  0.4445269157455982  0.5558935403932637  0.0960315007075536
  0.2111136389422441  0.4405264083220217  0.8556243261138121
  0.1047926054767743  0.5583494931235577  0.5882722069844561
  0.8873892434350097  0.4416162048912327  0.3408082846588414
  0.7820280441685981  0.5578337331313747  0.0962489992475426
  0.5625773199892876  0.4405249231042845  0.8556290434755596
  0.2231398919832941  0.7795324222324851  0.3410501983387277
  0.1116495582497663  0.8901384255031033  0.0935870171994111
  0.8897411031144031  0.7778534776252144  0.8445501628965104
  0.7808553778968843  0.8924068199509989  0.5930246929340015
  0.5579832633716961  0.7828038391737522  0.3388199287705831
  0.4442019560790342  0.8912989068721728  0.0928167053501099
  0.2212758495790013  0.7778540260012932  0.8445535283991177
  0.1092327675654801  0.8853016832907556  0.5917414145902953
  0.8895537329404775  0.7795322325665026  0.3410560525484598
  0.7802593450375497  0.8912969799598045  0.0928174330715876
  0.5585201855088400  0.7838786312618069  0.8499765440669975
  0.4447118535913788  0.8924043188427433  0.5930200573227893
  0.4362979160342135  0.5394256745739412  0.6041112138404827
  0.1100071654970520  0.2220521590315627  0.3626534429004735
  0.2216916284271306  0.1102210039825451  0.1192442129285993
  0.7777028869415332  0.2222459550936264  0.8625427311854708
  0.8914733488911679  0.1121202913576411  0.6135733473393330
  0.4452078543710414  0.2220547190236601  0.3626539718995545
  0.5570481261566300  0.1115933353422633  0.1172444462048432
  0.1096141186620301  0.2185471347138304  0.8685512153048407
  0.2180453029202312  0.1029281381277727  0.6135919032547363
  0.7776513295999834  0.2221380920423002  0.3686765780710246
  0.8877078938657803  0.1115936348386839  0.1172372537647846
  0.4420953897912696  0.2185431681010286  0.8685527607478676
  0.5538089569719773  0.1121194229934588  0.6135670345757731
  0.1108158158296675  0.5561159767934285  0.3604051519699425
  0.2203284573518332  0.4433541570899280  0.1095778813829043
  0.7829774428036131  0.5583477881053369  0.8736246453905636
  0.8896101186060008  0.4460565855819212  0.6155548817309295
  0.4450176694947672  0.5568688011583873  0.3502419058985495
  0.5561881416879757  0.4433532804958062  0.1095708540207241
  0.1085350925583271  0.5583454983742229  0.8736224624046827
  0.1924060072986506  0.4381227532341185  0.6250255889878247
  0.7784587420698870  0.5561130122843707  0.3604057822521654
  0.8873571985689779  0.4415511930052958  0.1174262299364557
  0.4436321519142012  0.5541029117696965  0.8645773417744351
  0.5788815113244965  0.4381201809098130  0.6250397560728729
  0.1103572352340407  0.8875511670242062  0.3652921569715275
  0.2233351282378848  0.7801876007377331  0.1165461471954075
  0.7799386810478879  0.8900488977081480  0.8660519716881154
  0.8883984380778358  0.7772942132820830  0.6155215432199199
  0.4443564334350825  0.8889088191642784  0.3644381729263984
  0.5565206184559486  0.7798787521447679  0.1100558455585769
  0.1109296824137616  0.8886981156015636  0.8673148132348416
  0.2220586457831573  0.7772953177130688  0.6155257250364770
  0.7777148337265913  0.8889110711217896  0.3644391572868599
  0.8900146575525625  0.7801877315918446  0.1165512172403993
  0.4432748066609591  0.8900509897185174  0.8660531245826206
  0.5629478413963724  0.7927337627290214  0.6172068513925169
 
             NaN             NaN             NaN
             NaN             NaN             NaN
             NaN             NaN             NaN
             NaN             NaN             NaN
             NaN             NaN             NaN
             NaN             NaN             NaN
             NaN             NaN             NaN
             NaN             NaN             NaN
             NaN             NaN             NaN
             NaN             NaN             NaN
             NaN             NaN             NaN
             NaN             NaN             NaN
             NaN             NaN             NaN
             NaN             NaN             NaN
             NaN             NaN             NaN
             NaN             NaN             NaN
             NaN             NaN             NaN
             NaN             NaN             NaN
             NaN             NaN             NaN
             NaN             NaN             NaN
             NaN             NaN             NaN
             NaN             NaN             NaN
             NaN             NaN             NaN
             NaN             NaN             NaN
             NaN             NaN             NaN
             NaN             NaN             NaN
             NaN             NaN             NaN
             NaN             NaN             NaN
             NaN             NaN             NaN
             NaN             NaN             NaN
             NaN             NaN             NaN
             NaN             NaN             NaN
             NaN             NaN             NaN
             NaN             NaN             NaN
             NaN             NaN             NaN
             NaN             NaN             NaN
             NaN             NaN             NaN
             NaN             NaN             NaN
             NaN             NaN             NaN
             NaN             NaN             NaN
             NaN             NaN             NaN
             NaN             NaN             NaN
             NaN             NaN             NaN
             NaN             NaN             NaN
             NaN             NaN             NaN
             NaN             NaN             NaN
             NaN             NaN             NaN
             NaN             NaN             NaN
             NaN             NaN             NaN
             NaN             NaN             NaN
             NaN             NaN             NaN
             NaN             NaN             NaN
             NaN             NaN             NaN
             NaN             NaN             NaN
             NaN             NaN             NaN
             NaN             NaN             NaN
             NaN             NaN             NaN
             NaN             NaN             NaN
             NaN             NaN             NaN
             NaN             NaN             NaN
             NaN             NaN             NaN
             NaN             NaN             NaN
             NaN             NaN             NaN
             NaN             NaN             NaN
             NaN             NaN             NaN
             NaN             NaN             NaN
             NaN             NaN             NaN
             NaN             NaN             NaN
             NaN             NaN             NaN
             NaN             NaN             NaN
             NaN             NaN             NaN
             NaN             NaN             NaN
