Al   Hf   N                             
   1.00000000000000     
     9.4355686184436127   -0.0000066294946516    0.0000213278707581
    -4.7177788215174346    8.1732094559318238    0.0005942894353594
    -0.0000214419048941    0.0009960258646131   10.0792348445668853
   Al   Hf   N 
    35     1    36
Direct
  0.2219532138993117  0.1107019479361497  0.3087231374739119
  0.1094071468494704  0.2196320162032990  0.0598963628314664
  0.8901075171935133  0.1117969680178419  0.8068834301817134
  0.7775392771062641  0.2218740000560544  0.5596410961418457
  0.5564417905389050  0.1109762680623660  0.3081758595175117
  0.4434293886870577  0.2196320097389375  0.0598963718077385
  0.2213553127448549  0.1095060449833696  0.8106652573024533
  0.1159657807758592  0.2232588596724554  0.5563560963590817
  0.8877389531763171  0.1109762577132969  0.3081758534972252
  0.7776156749067198  0.2220268212219381  0.0578755336702770
  0.5548940340651995  0.1117969554010187  0.8068834279785406
  0.4404976098198361  0.2232588395497928  0.5563561013939733
  0.2199353671026643  0.4420803501097339  0.3030719969018918
  0.1096626055381833  0.5568682679585777  0.0604190550290014
  0.8890703016610928  0.4449360225441552  0.8091922376078386
  0.7835881699113827  0.5557133895417863  0.5596253339394224
  0.5553494055206940  0.4420803495696859  0.3030720036011374
  0.4447351892734659  0.5562658919963397  0.0571315319788184
  0.2137924314025952  0.4413512645102315  0.8178450254671858
  0.1053297577162695  0.5557133867336432  0.5596253204920743
  0.8881933305167706  0.4431822215157979  0.3097844537479020
  0.7804101322564208  0.5568682486479091  0.0604190566302591
  0.5607633908971010  0.4413512343703943  0.8178450336626710
  0.2225359787368575  0.7780389492399067  0.3097266466567774
  0.1107542738984577  0.8883040347867635  0.0598014753619367
  0.8894733442926110  0.7779782713358543  0.8092625378157763
  0.7822739551413278  0.8947567810539709  0.5582571936737537
  0.5577851679564745  0.7823658782865621  0.3025343850595164
  0.4438101712476694  0.8901696070209795  0.0578020555776959
  0.2217095162733216  0.7779782733903389  0.8092625337711610
  0.1106916035985321  0.8881786476935645  0.5599652047900463
  0.8887074451619057  0.7780389415129108  0.3097266510473062
  0.7795639421529401  0.8901695911584113  0.0578020514794773
  0.5587791068981716  0.7843536325768596  0.8115730758723032
  0.4456873633452432  0.8947567644589540  0.5582571945913841
  0.4375253142827162  0.5418460410345247  0.5647855405460191
  0.1092295033006252  0.2211845637281940  0.3642885413779382
  0.2216256039162161  0.1100467236701519  0.1187265082373443
  0.7777631917539622  0.2223218140086871  0.8668992524599091
  0.8922500972979748  0.1132869483562970  0.6166722892149465
  0.4451595249516060  0.2211845521796647  0.3642885429034877
  0.5564431259173261  0.1108556733271442  0.1179502014351641
  0.1097125027538937  0.2194467125734647  0.8710663146372042
  0.2196376933590258  0.1060708591193773  0.6215728661618485
  0.7775741551214352  0.2219438321853175  0.3686503859342594
  0.8876170402961208  0.1108556612368758  0.1179501959082287
  0.4429387695617280  0.2194466897937417  0.8710663273363295
  0.5542413869057725  0.1132869346037850  0.6166722845244976
  0.1117061264905814  0.5547905929644728  0.3683498340028137
  0.2211749437571271  0.4440793964953897  0.1133439813578931
  0.7818846296889390  0.5577938227039709  0.8719638397527376
  0.8886832677483980  0.4441620054706874  0.6188140247865732
  0.4461950737817588  0.5591857335834831  0.3504916304206489
  0.5561089074435515  0.4440793888344672  0.1133439905412814
  0.1091137581103183  0.5577938279685242  0.8719638321652710
  0.1949326373499503  0.4354021273473521  0.6313726471047332
  0.7762888832814312  0.5547905854007382  0.3683498435096624
  0.8883821496443502  0.4435598395257756  0.1199478182298037
  0.4443605445567442  0.5555165164407185  0.8613688741537686
  0.5736740221461645  0.4354020882493685  0.6313726671431112
  0.1108213449117201  0.8884382204697587  0.3692366789512675
  0.2225316200128944  0.7782818136720024  0.1196035175480077
  0.7800628509871288  0.8901840796507443  0.8682612931119706
  0.8880325765538331  0.7773956217832634  0.6179319412168098
  0.4449279337082288  0.8889015481571221  0.3673265953695122
  0.5564415620752001  0.7796786311800545  0.1125701280141200
  0.1105300783316281  0.8878555799366836  0.8697055035617112
  0.2225675840278143  0.7773956163353404  0.6179319402457679
  0.7771780777302482  0.8889015431467158  0.3673265932654033
  0.8889546758680922  0.7782817995823592  0.1196035210234712
  0.4433258056834575  0.8901840694759926  0.8682612963694254
  0.5652282571463019  0.7972519689474069  0.6221470886723566
 
             NaN             NaN             NaN
             NaN             NaN             NaN
             NaN             NaN             NaN
             NaN             NaN             NaN
             NaN             NaN             NaN
             NaN             NaN             NaN
             NaN             NaN             NaN
             NaN             NaN             NaN
             NaN             NaN             NaN
             NaN             NaN             NaN
             NaN             NaN             NaN
             NaN             NaN             NaN
             NaN             NaN             NaN
             NaN             NaN             NaN
             NaN             NaN             NaN
             NaN             NaN             NaN
             NaN             NaN             NaN
             NaN             NaN             NaN
             NaN             NaN             NaN
             NaN             NaN             NaN
             NaN             NaN             NaN
             NaN             NaN             NaN
             NaN             NaN             NaN
             NaN             NaN             NaN
             NaN             NaN             NaN
             NaN             NaN             NaN
             NaN             NaN             NaN
             NaN             NaN             NaN
             NaN             NaN             NaN
             NaN             NaN             NaN
             NaN             NaN             NaN
             NaN             NaN             NaN
             NaN             NaN             NaN
             NaN             NaN             NaN
             NaN             NaN             NaN
             NaN             NaN             NaN
             NaN             NaN             NaN
             NaN             NaN             NaN
             NaN             NaN             NaN
             NaN             NaN             NaN
             NaN             NaN             NaN
             NaN             NaN             NaN
             NaN             NaN             NaN
             NaN             NaN             NaN
             NaN             NaN             NaN
             NaN             NaN             NaN
             NaN             NaN             NaN
             NaN             NaN             NaN
             NaN             NaN             NaN
             NaN             NaN             NaN
             NaN             NaN             NaN
             NaN             NaN             NaN
             NaN             NaN             NaN
             NaN             NaN             NaN
             NaN             NaN             NaN
             NaN             NaN             NaN
             NaN             NaN             NaN
             NaN             NaN             NaN
             NaN             NaN             NaN
             NaN             NaN             NaN
             NaN             NaN             NaN
             NaN             NaN             NaN
             NaN             NaN             NaN
             NaN             NaN             NaN
             NaN             NaN             NaN
             NaN             NaN             NaN
             NaN             NaN             NaN
             NaN             NaN             NaN
             NaN             NaN             NaN
             NaN             NaN             NaN
             NaN             NaN             NaN
             NaN             NaN             NaN
