Al   Hf   N                             
   1.00000000000000     
     9.4355480595092835   -0.0000069233263503    0.0000204022226630
    -4.7177683215169912    8.1731964932874472    0.0006929637142714
    -0.0000204086786925    0.0009950526616130   10.0792771047853069
   Al   Hf   N 
    35     1    36
Direct
  0.2219656424602050  0.1107082713548522  0.3016766899768584
  0.1094203011988384  0.2196396009136521  0.0528496065348278
  0.8901222129286452  0.1118076238360075  0.7998379786826959
  0.7775533627373150  0.2218836000487130  0.5525945162781838
  0.5564538996528512  0.1109829083934954  0.3011299295989005
  0.4434423627324975  0.2196395943177905  0.0528496195538253
  0.2213691552395147  0.1095151514589290  0.8036201588068934
  0.1159822264568930  0.2232698153790764  0.5493119956669403
  0.8877520299703221  0.1109829033877716  0.3011299245856804
  0.7776287328406681  0.2220343907633904  0.0508300901447285
  0.5549085669462954  0.1118076121146032  0.7998379775636479
  0.4405106949091504  0.2232697943723352  0.5493119984825938
  0.2199459750260644  0.4420854299655872  0.2960254645504818
  0.1096754649091949  0.5568754736212185  0.0533726549768048
  0.8890842508957988  0.4449453527675686  0.8021460810954579
  0.7836018214732263  0.5557229173816651  0.5525798810274765
  0.5553624112523678  0.4420854253582220  0.2960254692427995
  0.4447484027421567  0.5562737821140260  0.0500901193272725
  0.2138102343134918  0.4413630953245402  0.8107995904343994
  0.1053441999884654  0.5557229176912628  0.5525798606162837
  0.8882060890291896  0.4431892079149335  0.3027386126635179
  0.7804230241101351  0.5568754574982790  0.0533726524389664
  0.5607759854582568  0.4413630675440103  0.8107996029589088
  0.2225488573268706  0.7780453489368284  0.3026807648225187
  0.1107669380964396  0.8883108211073818  0.0527557236580947
  0.8894875935877238  0.7779878380437921  0.8022160374525527
  0.7822887289336151  0.8947674070288087  0.5512125053230790
  0.5577991316824296  0.7823752685720535  0.2954865026704425
  0.4438228963756004  0.8901777039100622  0.0507551519137124
  0.2217233952185822  0.7779878368377453  0.8022160341596205
  0.1107055666095178  0.8881880158397948  0.5529186319548742
  0.8887194940464269  0.7780453389737190  0.3026807705114507
  0.7795778560030442  0.8901776883999233  0.0507551480272284
  0.5587926493682360  0.7843621541449934  0.8045295400482715
  0.4457017784037376  0.8947673866382289  0.5512125048332379
  0.4375412653298554  0.5418593724751730  0.5577316259373077
  0.1092419890120198  0.2211903102204928  0.3572444334828688
  0.2216381665793392  0.1100533094938569  0.1116807773525750
  0.7777770974012768  0.2223310499356970  0.8598548669467476
  0.8922651102855426  0.1132976814041342  0.6096275764265542
  0.4451713242350195  0.2211902927285649  0.3572444276319899
  0.5564553978692786  0.1108625285091591  0.1109049675296774
  0.1097272467691610  0.2194568352662145  0.8640205022299980
  0.2196508572177578  0.1060786073085183  0.6145287279492138
  0.7775865390486061  0.2219500576225784  0.3616045811064339
  0.8876301699684390  0.1108625146240385  0.1109049625065026
  0.4429527257294694  0.2194568130479126  0.8640205187530512
  0.5542556809801766  0.1132976649324959  0.6096275730636762
  0.1117187159494364  0.5547966608583508  0.3613051656699184
  0.2211862019018724  0.4440853614861666  0.1062990760849090
  0.7818979869387803  0.5578026553396427  0.8649179562746241
  0.8886969641481244  0.4441708300300320  0.6117686650889027
  0.4462077871890813  0.5591926227963739  0.3434398145289563
  0.5561221552180058  0.4440853606253938  0.1062990803535300
  0.1091277986021666  0.5578026570832080  0.8649179551266286
  0.1949513721897560  0.4354145376238705  0.6243275491767051
  0.7763008926192825  0.5547966523265870  0.3613051846744852
  0.8883949307178014  0.4435668652423033  0.1129027270259115
  0.4443751590152587  0.5555271884099966  0.8543299213378361
  0.5736862620994430  0.4354144918182286  0.6243275772036512
  0.1108335234652174  0.8884440505200786  0.3621909027488073
  0.2225443978418014  0.7782881518282423  0.1125583929372596
  0.7800775810537743  0.8901937985300563  0.8612156777046280
  0.8880466670036711  0.7774049026189545  0.6108864477956715
  0.4449406074606514  0.8889078850800161  0.3602823669868798
  0.5564554778147368  0.7796879252506272  0.1055242839139439
  0.1105436073089123  0.8878640733959173  0.8626607334373020
  0.2225813320575227  0.7774048972789274  0.6108864445011122
  0.7771902788702150  0.8889078853777903  0.3602823671119566
  0.8889667764420750  0.7782881365856440  0.1125583954044416
  0.4433393573722881  0.8901937885240798  0.8612156800700319
  0.5652420217801506  0.7972609301112072  0.6151038512377838
 
             NaN             NaN             NaN
             NaN             NaN             NaN
             NaN             NaN             NaN
             NaN             NaN             NaN
             NaN             NaN             NaN
             NaN             NaN             NaN
             NaN             NaN             NaN
             NaN             NaN             NaN
             NaN             NaN             NaN
             NaN             NaN             NaN
             NaN             NaN             NaN
             NaN             NaN             NaN
             NaN             NaN             NaN
             NaN             NaN             NaN
             NaN             NaN             NaN
             NaN             NaN             NaN
             NaN             NaN             NaN
             NaN             NaN             NaN
             NaN             NaN             NaN
             NaN             NaN             NaN
             NaN             NaN             NaN
             NaN             NaN             NaN
             NaN             NaN             NaN
             NaN             NaN             NaN
             NaN             NaN             NaN
             NaN             NaN             NaN
             NaN             NaN             NaN
             NaN             NaN             NaN
             NaN             NaN             NaN
             NaN             NaN             NaN
             NaN             NaN             NaN
             NaN             NaN             NaN
             NaN             NaN             NaN
             NaN             NaN             NaN
             NaN             NaN             NaN
             NaN             NaN             NaN
             NaN             NaN             NaN
             NaN             NaN             NaN
             NaN             NaN             NaN
             NaN             NaN             NaN
             NaN             NaN             NaN
             NaN             NaN             NaN
             NaN             NaN             NaN
             NaN             NaN             NaN
             NaN             NaN             NaN
             NaN             NaN             NaN
             NaN             NaN             NaN
             NaN             NaN             NaN
             NaN             NaN             NaN
             NaN             NaN             NaN
             NaN             NaN             NaN
             NaN             NaN             NaN
             NaN             NaN             NaN
             NaN             NaN             NaN
             NaN             NaN             NaN
             NaN             NaN             NaN
             NaN             NaN             NaN
             NaN             NaN             NaN
             NaN             NaN             NaN
             NaN             NaN             NaN
             NaN             NaN             NaN
             NaN             NaN             NaN
             NaN             NaN             NaN
             NaN             NaN             NaN
             NaN             NaN             NaN
             NaN             NaN             NaN
             NaN             NaN             NaN
             NaN             NaN             NaN
             NaN             NaN             NaN
             NaN             NaN             NaN
             NaN             NaN             NaN
             NaN             NaN             NaN
