Al   Hf   N                             
   1.00000000000000     
     9.4355589014305572   -0.0000029859815870    0.0000328059071376
    -4.7177767513586799    8.1732034141400867   -0.0006292716231502
    -0.0000344912211138   -0.0010663737153535   10.0792557686901052
   Al   Hf   N 
    35     1    36
Direct
  0.2212873491452498  0.1094646395213275  0.4025323256991769
  0.1093380753441693  0.2195888219573874  0.1533019918401450
  0.8876692044654320  0.1109325824256757  0.9050266202994948
  0.7774712445925402  0.2218324806970315  0.6535591187957053
  0.5548251521471954  0.1117561558743958  0.4063211133769968
  0.4433608465064012  0.2195888454364479  0.1533019844270740
  0.2218835914926274  0.1106571284513933  0.9044774700807778
  0.1158997608487269  0.2232180629161178  0.6568472476026272
  0.8900410581603211  0.1117561510722780  0.4063211061667431
  0.7775468787666924  0.2219836553539523  0.1553281222482639
  0.5563734378221881  0.1109326260010519  0.9050266043175412
  0.4404282691455563  0.2232180720946459  0.6568472530210840
  0.2137254913683506  0.4413098505580493  0.3953523663544587
  0.1095937033225383  0.5568250894273064  0.1527780042092388
  0.8881241815006433  0.4431383343261572  0.9034127863543588
  0.7835192326833678  0.5556712048183030  0.6535716343818336
  0.5606943423063839  0.4413098376258375  0.3953523704183866
  0.4446667696844955  0.5562235352174483  0.1560688763530607
  0.2198662768732333  0.4420367516040500  0.9101273496321909
  0.1052619020502306  0.5556711728562433  0.6535716404203100
  0.8890023295418388  0.4448946318018585  0.4040059122619226
  0.7803413959906322  0.5568250634029539  0.1527780224476203
  0.5552805123620601  0.4420368110679007  0.9101273506724326
  0.2216410327144871  0.7779362557636418  0.4039362074200668
  0.1106850057525506  0.8882599255089971  0.1533958475274630
  0.8886381518613504  0.7779950672756257  0.9034707973415053
  0.7822060829111663  0.8947152419101485  0.6549443224917226
  0.5587109374780184  0.7843118525269333  0.4016273472496010
  0.4437413577180394  0.8901268269842788  0.1554006655763160
  0.2224669948397988  0.7779950653879339  0.9034707934335273
  0.1106235122719994  0.8881369953568168  0.6532319907432154
  0.8894052773598204  0.7779362595440915  0.4039362106556084
  0.7794955066978844  0.8901267777339186  0.1554006773436001
  0.5577167742185765  0.7823235099419676  0.9106668259786943
  0.4456191447695090  0.8947152501352775  0.6549443188307151
  0.4374577792986045  0.5418056239652600  0.6484176169887377
  0.1096440165758210  0.2194046651552810  0.3421324419884613
  0.2215562809656859  0.1100024804815973  0.0944732600603970
  0.7775048076288797  0.2218995645142670  0.8445497802387223
  0.8921833267880643  0.1132458191756385  0.5965311153015236
  0.4428707114591290  0.2194046657666391  0.3421324366521219
  0.5563747614309165  0.1108118937266624  0.0952516679430673
  0.1091599666762519  0.2211400282650828  0.8489138326549508
  0.2195695425882320  0.1060290856755017  0.5916258509209769
  0.7776944921791014  0.2222789304776072  0.3463040902611851
  0.8875471954037835  0.1108118463406029  0.0952516790531917
  0.4450901007306314  0.2211400700026118  0.8489138352296592
  0.5541724825675516  0.1132458354907016  0.5965311233177388
  0.1090456090114742  0.5577515792520273  0.3412339324239682
  0.2211060222194305  0.4440358235448087  0.0998549907619690
  0.7762191048020810  0.5547463275120776  0.8448477390953997
  0.8886148311374882  0.4441197210847392  0.5943843581895791
  0.4442928165159685  0.5554756487720240  0.3518289070030960
  0.5560398303013372  0.4440358529309734  0.0998549926983046
  0.1116372398105341  0.5547463145761142  0.8448477475400509
  0.1948666702634583  0.4353604193644003  0.5818256814857250
  0.7818159749012707  0.5577515701976878  0.3412339509334359
  0.8883127054337905  0.4435153804220491  0.0932503298036735
  0.4461264544607033  0.5591429151604927  0.8627109558129575
  0.5736037043504822  0.4353604353574383  0.5818256889376769
  0.1104615713842350  0.8878130865788094  0.3434924469818625
  0.2224632790376333  0.7782383233511325  0.0935945311838466
  0.7771087939773977  0.8888580447357626  0.8458741933114169
  0.8879639836059212  0.7773535273508116  0.5952671506183975
  0.4432578063781349  0.8901429433033741  0.3449410416017642
  0.5563732132989259  0.7796363720327193  0.1006311285354684
  0.1107521381166876  0.8883942036911421  0.8439612081882828
  0.2224995364930749  0.7773535039551263  0.5952671482917182
  0.7799951791969093  0.8901429330574047  0.3449410493976899
  0.8888851163910090  0.7782383026268818  0.0935945398717379
  0.4448593057645525  0.8888580642710124  0.8458741889446983
  0.5651600036344320  0.7972100178917003  0.5910533837550247
 
             NaN             NaN             NaN
             NaN             NaN             NaN
             NaN             NaN             NaN
             NaN             NaN             NaN
             NaN             NaN             NaN
             NaN             NaN             NaN
             NaN             NaN             NaN
             NaN             NaN             NaN
             NaN             NaN             NaN
             NaN             NaN             NaN
             NaN             NaN             NaN
             NaN             NaN             NaN
             NaN             NaN             NaN
             NaN             NaN             NaN
             NaN             NaN             NaN
             NaN             NaN             NaN
             NaN             NaN             NaN
             NaN             NaN             NaN
             NaN             NaN             NaN
             NaN             NaN             NaN
             NaN             NaN             NaN
             NaN             NaN             NaN
             NaN             NaN             NaN
             NaN             NaN             NaN
             NaN             NaN             NaN
             NaN             NaN             NaN
             NaN             NaN             NaN
             NaN             NaN             NaN
             NaN             NaN             NaN
             NaN             NaN             NaN
             NaN             NaN             NaN
             NaN             NaN             NaN
             NaN             NaN             NaN
             NaN             NaN             NaN
             NaN             NaN             NaN
             NaN             NaN             NaN
             NaN             NaN             NaN
             NaN             NaN             NaN
             NaN             NaN             NaN
             NaN             NaN             NaN
             NaN             NaN             NaN
             NaN             NaN             NaN
             NaN             NaN             NaN
             NaN             NaN             NaN
             NaN             NaN             NaN
             NaN             NaN             NaN
             NaN             NaN             NaN
             NaN             NaN             NaN
             NaN             NaN             NaN
             NaN             NaN             NaN
             NaN             NaN             NaN
             NaN             NaN             NaN
             NaN             NaN             NaN
             NaN             NaN             NaN
             NaN             NaN             NaN
             NaN             NaN             NaN
             NaN             NaN             NaN
             NaN             NaN             NaN
             NaN             NaN             NaN
             NaN             NaN             NaN
             NaN             NaN             NaN
             NaN             NaN             NaN
             NaN             NaN             NaN
             NaN             NaN             NaN
             NaN             NaN             NaN
             NaN             NaN             NaN
             NaN             NaN             NaN
             NaN             NaN             NaN
             NaN             NaN             NaN
             NaN             NaN             NaN
             NaN             NaN             NaN
             NaN             NaN             NaN
