Al   Hf   N                             
   1.00000000000000     
     9.6312228144449392   -0.0000058067658951    0.0000239196854245
    -4.8156125046306615    8.3337110354053721    0.0003180014544056
    -0.0000137082289567   -0.0084788202265582    9.5528914946759453
   Al   Hf   N 
    35     1    36
Direct
  0.2221064890938180  0.1110509473518775  0.3307401245535004
  0.1087985541912957  0.2181258859362103  0.0814487629403757
  0.8901593789276561  0.1112399686424794  0.8264309082114849
  0.7776922505406674  0.2222202198404943  0.5812089710744957
  0.5571688570134157  0.1114627495534393  0.3296431990826960
  0.4424894524438585  0.2181233547464458  0.0814490046382943
  0.2214019486423027  0.1096410415182731  0.8290880135408614
  0.1143558692963111  0.2237947979079422  0.5759601641830372
  0.8874567535879834  0.1114629230730557  0.3296402404741130
  0.7774385720488155  0.2217159812732206  0.0770993416545380
  0.5542429390985362  0.1112395415835721  0.8264272409284530
  0.4426016537331989  0.2237962039992354  0.5759595074621586
  0.2217339883974603  0.4430729502178181  0.3230576868356820
  0.1091252049516669  0.5577002792913959  0.0826483084423444
  0.8896191372073332  0.4460750500289663  0.8288605801444362
  0.7838726298225680  0.5560941515057323  0.5773547044752902
  0.5545012143895249  0.4430724757039783  0.3230539738142539
  0.4447654283704736  0.5563697274899226  0.0763590569620689
  0.2094113070854675  0.4396078434482931  0.8414328386630174
  0.1053859056079673  0.5560961789308720  0.5773543100264078
  0.8876771521471554  0.4421915575441844  0.3296915296110043
  0.7817399290593485  0.5577018072981446  0.0826486853610007
  0.5633597103976555  0.4396071501801586  0.8414382078615290
  0.2229079443098669  0.7789388928146792  0.3295277116849462
  0.1111848818681551  0.8892087187892841  0.0796465227356151
  0.8896106560934740  0.7778511906321341  0.8293798562267298
  0.7811098713329372  0.8935744664064202  0.5779159377549234
  0.5571904651171735  0.7812182025218846  0.3239882908426921
  0.4438213687186305  0.8906708229577092  0.0786865276867132
  0.2214035229308777  0.7778515001604589  0.8293821653496778
  0.1103271338799416  0.8874906525719766  0.5797484508055746
  0.8891928128319080  0.7789388649711668  0.3295307800297564
  0.7800120807830453  0.8906697153940186  0.0786862559753629
  0.5595941286504882  0.7860257802702790  0.8326471858116236
  0.4456257335150156  0.8935725865202500  0.5779148495762243
  0.4363567813201783  0.5395457177591467  0.5970798230778982
  0.1097008734802642  0.2222452468796803  0.3750395813325582
  0.2214881932567181  0.1098144580724423  0.1314783518222811
  0.7777954242585992  0.2224296796990899  0.8765830955354375
  0.8916767064389219  0.1122987448174300  0.6272757402073452
  0.4457067950257283  0.2222460188728661  0.3750386250293332
  0.5571421423421583  0.1112292614349926  0.1299442495559191
  0.1090636538660377  0.2178375020652439  0.8830432042556211
  0.2201187893354088  0.1070751169135988  0.6299328322664621
  0.7776463803620288  0.2221286982870083  0.3812496898265323
  0.8872500585265826  0.1112295586042436  0.1299413119757276
  0.4419361318084825  0.2178350433441736  0.8830436782043805
  0.5537844290549216  0.1122981424104026  0.6272719427231408
  0.1117612281243652  0.5551292011601703  0.3767744752585003
  0.2217372593561109  0.4443325698690188  0.1224028139908881
  0.7836687911032740  0.5587268963421153  0.8851582765004480
  0.8893695412413223  0.4455748626095115  0.6289028345075423
  0.4463130862817337  0.5594618036394934  0.3661480195867881
  0.5557579113240010  0.4443322149790347  0.1223987090944760
  0.1082218681722367  0.5587254949576064  0.8851575445929640
  0.1904405648086183  0.4339095488464224  0.6435931430429633
  0.7765289274247067  0.5551276441920479  0.3767745243025757
  0.8878207775189395  0.4424785218568061  0.1313384885850084
  0.4435159358671541  0.5538696383632669  0.8676012808585369
  0.5766335947957018  0.4339078374353349  0.6435983150780800
  0.1107710719155506  0.8883790112496115  0.3802628237993417
  0.2227527711698229  0.7795219260031558  0.1306767467704262
  0.7804595503439202  0.8901908520664819  0.8797514021778383
  0.8879247362172507  0.7771584439367274  0.6286330994900666
  0.4448340459989879  0.8890286478302158  0.3777729267868324
  0.5561436773622432  0.7791247063705740  0.1226941332245133
  0.1108131131181409  0.8884646180177143  0.8800424323871781
  0.2223964137861358  0.7771589837869257  0.6286353526244426
  0.7773572723766691  0.8890302832522679  0.3777738001520774
  0.8899313206627824  0.7795220885406806  0.1306796235264969
  0.4428951468811348  0.8901919413457975  0.8797515833662359
  0.5653993912958484  0.7976363989219664  0.6325268697565036
 
             NaN             NaN             NaN
             NaN             NaN             NaN
             NaN             NaN             NaN
             NaN             NaN             NaN
             NaN             NaN             NaN
             NaN             NaN             NaN
             NaN             NaN             NaN
             NaN             NaN             NaN
             NaN             NaN             NaN
             NaN             NaN             NaN
             NaN             NaN             NaN
             NaN             NaN             NaN
             NaN             NaN             NaN
             NaN             NaN             NaN
             NaN             NaN             NaN
             NaN             NaN             NaN
             NaN             NaN             NaN
             NaN             NaN             NaN
             NaN             NaN             NaN
             NaN             NaN             NaN
             NaN             NaN             NaN
             NaN             NaN             NaN
             NaN             NaN             NaN
             NaN             NaN             NaN
             NaN             NaN             NaN
             NaN             NaN             NaN
             NaN             NaN             NaN
             NaN             NaN             NaN
             NaN             NaN             NaN
             NaN             NaN             NaN
             NaN             NaN             NaN
             NaN             NaN             NaN
             NaN             NaN             NaN
             NaN             NaN             NaN
             NaN             NaN             NaN
             NaN             NaN             NaN
             NaN             NaN             NaN
             NaN             NaN             NaN
             NaN             NaN             NaN
             NaN             NaN             NaN
             NaN             NaN             NaN
             NaN             NaN             NaN
             NaN             NaN             NaN
             NaN             NaN             NaN
             NaN             NaN             NaN
             NaN             NaN             NaN
             NaN             NaN             NaN
             NaN             NaN             NaN
             NaN             NaN             NaN
             NaN             NaN             NaN
             NaN             NaN             NaN
             NaN             NaN             NaN
             NaN             NaN             NaN
             NaN             NaN             NaN
             NaN             NaN             NaN
             NaN             NaN             NaN
             NaN             NaN             NaN
             NaN             NaN             NaN
             NaN             NaN             NaN
             NaN             NaN             NaN
             NaN             NaN             NaN
             NaN             NaN             NaN
             NaN             NaN             NaN
             NaN             NaN             NaN
             NaN             NaN             NaN
             NaN             NaN             NaN
             NaN             NaN             NaN
             NaN             NaN             NaN
             NaN             NaN             NaN
             NaN             NaN             NaN
             NaN             NaN             NaN
             NaN             NaN             NaN
