Al   Hf   N                             
   1.00000000000000     
     9.4355626248477122   -0.0000066882609913    0.0000211427411391
    -4.7177756942920155    8.1732068171178156    0.0006140242911418
    -0.0000214807684412    0.0010162690885102   10.0792490776820625
   Al   Hf   N 
    35     1    36
Direct
  0.2219552683239527  0.1107022599518075  0.3072864947017280
  0.1094095239376074  0.2196332416489852  0.0584606712140854
  0.8901115960676975  0.1117997634201018  0.8054440306446509
  0.7775424009048777  0.2218764784061236  0.5582047974339019
  0.5564447016499159  0.1109772924065950  0.3067382255458071
  0.4434320366232640  0.2196332432331545  0.0584606816712139
  0.2213584492326675  0.1095085260301971  0.8092296252839617
  0.1159701758353648  0.2232618128840684  0.5549167895816538
  0.8877408586235518  0.1109772820190429  0.3067382193708355
  0.7776182208820117  0.2220281202722632  0.0564370920851403
  0.5548965351214363  0.1117997542007743  0.8054440273033734
  0.4404999452544729  0.2232618013928800  0.5549167898775664
  0.2199377637401625  0.4420815892927408  0.3016350607294598
  0.1096651122802328  0.5568696576972130  0.0589840074920929
  0.8890733808945157  0.4449384060909480  0.8077572745095907
  0.7835907068186216  0.5557153481153208  0.5581910847197591
  0.5553520555683704  0.4420816015071978  0.3016350667890109
  0.4447380718235863  0.5562678691489538  0.0556938877723923
  0.2137961871278335  0.4413536218693253  0.8164096909604552
  0.1053329388470488  0.5557153350782826  0.5581910746862135
  0.8881957343517186  0.4431832292179294  0.3083498370803639
  0.7804128117483060  0.5568696427047257  0.0589840022617381
  0.5607657659582870  0.4413536000596991  0.8164096935750891
  0.2225383637611529  0.7780397587401424  0.3082919709614345
  0.1107566316746329  0.8883049531165170  0.0583669217166261
  0.8894764592479802  0.7779804749136687  0.8078272739021628
  0.7822772078354703  0.8947591107626991  0.5568200195187742
  0.5577879583587446  0.7823676654363467  0.3010969642994539
  0.4438128247035209  0.8901712579847256  0.0563641845844458
  0.2217123790161466  0.7779804710987719  0.8078272744415216
  0.1106945770004444  0.8881808185755062  0.5585306917166264
  0.8887096677634219  0.7780397575658426  0.3082919746827528
  0.7795667297954907  0.8901712396867936  0.0563641813254350
  0.5587821405593658  0.7843559246834531  0.8101356771435846
  0.4456902059687451  0.8947590943079362  0.5568200209384671
  0.4375286710621538  0.5418490071610833  0.5633464159635437
  0.1092317032750785  0.2211853088040030  0.3628500822956013
  0.2216278899402937  0.1100474924337647  0.1172903115337363
  0.7777658149082143  0.2223232711913781  0.8654607309449460
  0.8922541004436368  0.1132896612494250  0.6152334682810761
  0.4451618695885173  0.2211853073567056  0.3628500786716629
  0.5564459778702187  0.1108567139130869  0.1165127567611677
  0.1097153420727253  0.2194487322665211  0.8696302841963615
  0.2196407729662369  0.1060732325062617  0.6201365740180762
  0.7775764530029861  0.2219446382609433  0.3672140768543599
  0.8876190255835752  0.1108567002833354  0.1165127499815029
  0.4429417468818357  0.2194487185195229  0.8696302969938614
  0.5542438659290312  0.1132896488071680  0.6152334634197558
  0.1117087097170639  0.5547912176485568  0.3669149968028762
  0.2211774972450939  0.4440805913072481  0.1119073853452761
  0.7818872768169953  0.5577957586703093  0.8705285025028928
  0.8886861075367563  0.4441639256095655  0.6173789113649235
  0.4461976966695147  0.5591871827159451  0.3490528536288764
  0.5561113506391422  0.4440805958669571  0.1119073926163452
  0.1091168193463545  0.5577957607172479  0.8705285076440177
  0.1949371355901235  0.4354043433810588  0.6299368091435866
  0.7762907335104288  0.5547912184970656  0.3669150060562316
  0.8883843924236601  0.4435605277365227  0.1185124416263008
  0.4443638611775782  0.5555193839782930  0.8599331053979924
  0.5736755083324283  0.4354043193099173  0.6299368197306450
  0.1108236445945394  0.8884390213402540  0.3678017130797357
  0.2225344500210156  0.7782829244378604  0.1181683213715985
  0.7800660519480118  0.8901867342881573  0.8668234255718588
  0.8880353253294757  0.7773976781849825  0.6164963406989727
  0.4449305800748462  0.8889026296708522  0.3658897059152082
  0.5564443918854352  0.7796804952503820  0.1111327256450494
  0.1105329713501177  0.8878575843210754  0.8682704372967791
  0.2225706591518133  0.7773976624874734  0.6164963437062170
  0.7771803028073876  0.8889026269667042  0.3658897051262073
  0.8889567594764216  0.7782829129609468  0.1181683230812851
  0.4433290373258387  0.8901867267136581  0.8668234266837516
  0.5652311534810508  0.7972539951830555  0.6207099321912892
 
             NaN             NaN             NaN
             NaN             NaN             NaN
             NaN             NaN             NaN
             NaN             NaN             NaN
             NaN             NaN             NaN
             NaN             NaN             NaN
             NaN             NaN             NaN
             NaN             NaN             NaN
             NaN             NaN             NaN
             NaN             NaN             NaN
             NaN             NaN             NaN
             NaN             NaN             NaN
             NaN             NaN             NaN
             NaN             NaN             NaN
             NaN             NaN             NaN
             NaN             NaN             NaN
             NaN             NaN             NaN
             NaN             NaN             NaN
             NaN             NaN             NaN
             NaN             NaN             NaN
             NaN             NaN             NaN
             NaN             NaN             NaN
             NaN             NaN             NaN
             NaN             NaN             NaN
             NaN             NaN             NaN
             NaN             NaN             NaN
             NaN             NaN             NaN
             NaN             NaN             NaN
             NaN             NaN             NaN
             NaN             NaN             NaN
             NaN             NaN             NaN
             NaN             NaN             NaN
             NaN             NaN             NaN
             NaN             NaN             NaN
             NaN             NaN             NaN
             NaN             NaN             NaN
             NaN             NaN             NaN
             NaN             NaN             NaN
             NaN             NaN             NaN
             NaN             NaN             NaN
             NaN             NaN             NaN
             NaN             NaN             NaN
             NaN             NaN             NaN
             NaN             NaN             NaN
             NaN             NaN             NaN
             NaN             NaN             NaN
             NaN             NaN             NaN
             NaN             NaN             NaN
             NaN             NaN             NaN
             NaN             NaN             NaN
             NaN             NaN             NaN
             NaN             NaN             NaN
             NaN             NaN             NaN
             NaN             NaN             NaN
             NaN             NaN             NaN
             NaN             NaN             NaN
             NaN             NaN             NaN
             NaN             NaN             NaN
             NaN             NaN             NaN
             NaN             NaN             NaN
             NaN             NaN             NaN
             NaN             NaN             NaN
             NaN             NaN             NaN
             NaN             NaN             NaN
             NaN             NaN             NaN
             NaN             NaN             NaN
             NaN             NaN             NaN
             NaN             NaN             NaN
             NaN             NaN             NaN
             NaN             NaN             NaN
             NaN             NaN             NaN
             NaN             NaN             NaN
