Al   Hf   N                             
   1.00000000000000     
     9.7545285135937352   -0.0000042200747218    0.0000289181851381
    -4.8772538742660174    8.4373858582085468   -0.0002148396517195
    -0.0000080983078504    0.0064264484498726    9.1904652599434566
   Al   Hf   N 
    35     1    36
Direct
  0.2213586447534084  0.1095543238860230  0.3767655248774346
  0.1085500271420301  0.2173413256063341  0.1228689104494620
  0.8874563834803340  0.1116085898609640  0.8733752584261865
  0.7779219065525709  0.2226837743423644  0.6224525626567115
  0.5541119198282800  0.1112373163306941  0.3786120898308880
  0.4419553229895357  0.2173459478522659  0.1228679888891691
  0.2221711684609886  0.1111788512864607  0.8723392037052875
  0.1154152828009387  0.2247165839966598  0.6279328670125253
  0.8902882774081462  0.1112365995546014  0.3786197895639134
  0.7772365211300354  0.2213070088980089  0.1277342844650420
  0.5573153175371601  0.1116082693816125  0.8733817472670538
  0.4424645080781957  0.2247135001298872  0.6279322233916460
  0.2096133733277341  0.4399737763808176  0.3613272122747162
  0.1088723120575352  0.5579550366395196  0.1209409252677034
  0.8873426540047191  0.4415219310504099  0.8754747196559620
  0.7848712690320241  0.5569597295937427  0.6285868520172215
  0.5635225816964322  0.4399745370356314  0.3613373731023302
  0.4446869366952768  0.5562075744008510  0.1248961112167493
  0.2201078116722570  0.4421228171291247  0.8827081490481277
  0.1052497808206709  0.5569563352658591  0.6285865800945132
  0.8898625708422117  0.4465628721957131  0.3752230261604623
  0.7822416135739587  0.5579518973527584  0.1209410047033259
  0.5551788685652781  0.4421234108624219  0.8826993219655677
  0.2211712399551971  0.7777128706503760  0.3745814880856173
  0.1114466414882855  0.8897273709506663  0.1245925099322065
  0.8893973040554499  0.7793797150093269  0.8754985180387820
  0.7807949672879531  0.8928888432950544  0.6258742786461013
  0.5592229503575012  0.7852820083888474  0.3695418986894197
  0.4438737100868835  0.8912043554556632  0.1256011371322003
  0.2231466326042053  0.7793797436855954  0.8754921558692601
  0.1097176087171050  0.8862742748729602  0.6253064808910054
  0.8897044965678731  0.7777132846952739  0.3745760166948884
  0.7804939288748685  0.8912068465233673  0.1256002188854595
  0.5575053322739194  0.7818478308016381  0.8805023634826981
  0.4452599209679988  0.8928920777828750  0.6258720335569521
  0.4363256507281008  0.5394964042886343  0.6079644955768444
  0.1092262495218534  0.2177409327843449  0.3307275162584915
  0.2215162679914329  0.1098688236915493  0.0810263126498185
  0.7776790312669490  0.2221975169995503  0.8314165574075716
  0.8917595097167208  0.1122034171601314  0.5867905320254110
  0.4416783778622531  0.2177451054039850  0.3307275899634945
  0.5572858994537242  0.1114085346566540  0.0828094524716576
  0.1098222669204674  0.2224083062516584  0.8383020467856142
  0.2191535002948299  0.1051433668279884  0.5851986519157606
  0.7777513722399902  0.2223367115131936  0.3377014700238234
  0.8872856901487864  0.1114084445418158  0.0828031093314081
  0.4457492057505306  0.2224058214438926  0.8383011935630904
  0.5536075222854677  0.1122043018674077  0.5867828398857426
  0.1081613103773122  0.5588608257448229  0.3271606082849274
  0.2211022253941692  0.4438195817351698  0.0921679712333230
  0.7770518970734983  0.5553895089323646  0.8385848869556511
  0.8896638965845867  0.4461662825103687  0.5848091079062314
  0.4433741137516591  0.5535833529142025  0.3433506576294931
  0.5558805808435565  0.4438201591423692  0.0921589802188407
  0.1115014636689367  0.5553865982693367  0.8385850208483490
  0.1909078554067420  0.4358283202574853  0.5707765758667875
  0.7838580693829726  0.5588579181472682  0.3271616847389751
  0.8874654547533822  0.4417683137895025  0.0823214435452115
  0.4458698656481133  0.5585800873585924  0.8491294464068559
  0.5780809701263934  0.4358306125699514  0.5707870611002122
  0.1109016894182773  0.8886382139786093  0.3332785713312845
  0.2230532377253809  0.7800208758855192  0.0829736744721359
  0.7772072795247453  0.8887437220865664  0.8355837354495392
  0.8880289633466987  0.7770344514917582  0.5848786189701087
  0.4428652212999111  0.8903266007980690  0.3338006544023173
  0.5563719604616466  0.7795808316306463  0.0914457234248047
  0.1105451864184843  0.8879286995998257  0.8337601070211562
  0.2221684221032092  0.7770336852834916  0.5848838645352430
  0.7806246284815472  0.8903290270722266  0.3337998609236550
  0.8901313332039749  0.7800205115605294  0.0829796659228421
  0.4447024365619114  0.8887465140554340  0.8355820092279060
  0.5643108729220572  0.7954578811449622  0.5808761531401458
 
             NaN             NaN             NaN
             NaN             NaN             NaN
             NaN             NaN             NaN
             NaN             NaN             NaN
             NaN             NaN             NaN
             NaN             NaN             NaN
             NaN             NaN             NaN
             NaN             NaN             NaN
             NaN             NaN             NaN
             NaN             NaN             NaN
             NaN             NaN             NaN
             NaN             NaN             NaN
             NaN             NaN             NaN
             NaN             NaN             NaN
             NaN             NaN             NaN
             NaN             NaN             NaN
             NaN             NaN             NaN
             NaN             NaN             NaN
             NaN             NaN             NaN
             NaN             NaN             NaN
             NaN             NaN             NaN
             NaN             NaN             NaN
             NaN             NaN             NaN
             NaN             NaN             NaN
             NaN             NaN             NaN
             NaN             NaN             NaN
             NaN             NaN             NaN
             NaN             NaN             NaN
             NaN             NaN             NaN
             NaN             NaN             NaN
             NaN             NaN             NaN
             NaN             NaN             NaN
             NaN             NaN             NaN
             NaN             NaN             NaN
             NaN             NaN             NaN
             NaN             NaN             NaN
             NaN             NaN             NaN
             NaN             NaN             NaN
             NaN             NaN             NaN
             NaN             NaN             NaN
             NaN             NaN             NaN
             NaN             NaN             NaN
             NaN             NaN             NaN
             NaN             NaN             NaN
             NaN             NaN             NaN
             NaN             NaN             NaN
             NaN             NaN             NaN
             NaN             NaN             NaN
             NaN             NaN             NaN
             NaN             NaN             NaN
             NaN             NaN             NaN
             NaN             NaN             NaN
             NaN             NaN             NaN
             NaN             NaN             NaN
             NaN             NaN             NaN
             NaN             NaN             NaN
             NaN             NaN             NaN
             NaN             NaN             NaN
             NaN             NaN             NaN
             NaN             NaN             NaN
             NaN             NaN             NaN
             NaN             NaN             NaN
             NaN             NaN             NaN
             NaN             NaN             NaN
             NaN             NaN             NaN
             NaN             NaN             NaN
             NaN             NaN             NaN
             NaN             NaN             NaN
             NaN             NaN             NaN
             NaN             NaN             NaN
             NaN             NaN             NaN
             NaN             NaN             NaN
