Al   Hf   N                             
   1.00000000000000     
     9.9633734598088477   -0.0000050428034783    0.0000263263704718
    -4.9816897439523009    8.6130985359613490    0.0000614483292342
    -0.0000003265351968   -0.0029527013289000    8.5514620351201920
   Al   Hf   N 
    35     1    36
Direct
  0.2220998290358835  0.1110375170214937  0.3512637518110822
  0.1091624128657926  0.2180841326713931  0.0993786079486938
  0.8894995277813749  0.1114381090371452  0.8458901511832693
  0.7779849946402067  0.2228058360817826  0.5998574786453759
  0.5564251900213293  0.1117562247911437  0.3512428317249316
  0.4420833519450653  0.2180803531933009  0.0993706410127189
  0.2216355612050407  0.1101076886492081  0.8459277678800703
  0.1158085606805059  0.2240917985737667  0.5979238942531353
  0.8884933016734706  0.1117557042245920  0.3512456688712930
  0.7770465425982280  0.2209323346964140  0.0973656971501882
  0.5551006206597009  0.1114369612815125  0.8458782151946878
  0.4414459380756739  0.2240934260975536  0.5979172044909831
  0.2154875200825117  0.4407163312590043  0.3397899289256259
  0.1092381232522683  0.5576926321587408  0.1003102918775198
  0.8891782497519074  0.4451923968379390  0.8501418495192894
  0.7875223824440454  0.5588604472976400  0.5948609258686730
  0.5583890607961877  0.4407158834351108  0.3397718410234063
  0.4444139381418424  0.5556674950198328  0.1005888073859111
  0.2119651084695775  0.4406064794297606  0.8588294773224519
  0.1045016978696367  0.5588628871181740  0.5948629588151633
  0.8877499611519042  0.4423380033611153  0.3456181863822749
  0.7816200891154637  0.5576943285878926  0.1003075486875957
  0.5618068798437150  0.4406046193608688  0.8588280336148699
  0.2229185405815954  0.7793210821963186  0.3462378497255045
  0.1116028855568345  0.8900444050736098  0.0992075788752800
  0.8897404506264195  0.7782017487713588  0.8507496032265038
  0.7809792189292040  0.8924266511360699  0.5990756037276626
  0.5581742272153676  0.7831858189827798  0.3450891608517992
  0.4443697586040471  0.8910868479808585  0.0988498570066625
  0.2216250051354081  0.7782022736166780  0.8507502272397147
  0.1092608038915586  0.8853583866063488  0.5975214091133338
  0.8895635734102001  0.7793207589465680  0.3462430681745587
  0.7798794772115443  0.8910855445922792  0.0988533170998593
  0.5583211278812144  0.7834805205073678  0.8550006206402401
  0.4446085507612381  0.8924249764487584  0.5990679575159987
  0.4363121899014786  0.5394545618096984  0.6046194360794956
  0.1099734632444722  0.2214072877723083  0.3577596058260752
  0.2218048757895659  0.1104474427246416  0.1124820538271365
  0.7776827002662685  0.2222052311997089  0.8579097104119882
  0.8911897052050293  0.1121265176305286  0.6088414719193551
  0.4445970955376453  0.2214103721878971  0.3577625324179579
  0.5567291176532265  0.1115763665306631  0.1109299784193141
  0.1097821367119280  0.2193153845869489  0.8625046518926638
  0.2177789428118473  0.1023951488538017  0.6087290541816373
  0.7775977276573798  0.2220311996556035  0.3622752933043643
  0.8880100477483737  0.1115768105048431  0.1109213713187458
  0.4426954469630076  0.2193109774251027  0.8625087533840912
  0.5540988982766208  0.1121258256131910  0.6088381086352612
  0.1102782986482467  0.5566198592094622  0.3553345391657601
  0.2199761202294397  0.4432640362025637  0.1068086792984815
  0.7822114185023352  0.5579437298483114  0.8673926042814770
  0.8893520838719837  0.4455408981099751  0.6102978642662293
  0.4446665631217144  0.5561662828229146  0.3467858892091442
  0.5564502135525089  0.4432630701306479  0.1068029056396895
  0.1088977993309754  0.5579414361410429  0.8673886155671724
  0.1932664279155460  0.4387624988867458  0.6159575736531480
  0.7794990448824706  0.5566165758037656  0.3553364314186283
  0.8875003963634143  0.4418374396374816  0.1114546422367368
  0.4438836107914739  0.5546061552295001  0.8644395394981785
  0.5786605826097286  0.4387599439812675  0.6159785451125472
  0.1104328153902188  0.8877027873846544  0.3591698968242198
  0.2233895975131617  0.7800537890648940  0.1106940878249176
  0.7793313123193215  0.8897272849682665  0.8604492928221390
  0.8886422196408290  0.7776416776919390  0.6100580422903121
  0.4441903304973920  0.8891968861646546  0.3588023441432284
  0.5565489847375673  0.7799356795686165  0.1067160770904394
  0.1107977026910660  0.8884336179328614  0.8619256480251352
  0.2221623238731709  0.7776429031494914  0.6100615028179988
  0.7781688987586008  0.8891986884396630  0.3588014577059297
  0.8898265078389684  0.7800538490837567  0.1106979218076347
  0.4435603665414902  0.8897290600249335  0.8604513430176226
  0.5625508474016172  0.7919396210336274  0.6103186463713399
 
             NaN             NaN             NaN
             NaN             NaN             NaN
             NaN             NaN             NaN
             NaN             NaN             NaN
             NaN             NaN             NaN
             NaN             NaN             NaN
             NaN             NaN             NaN
             NaN             NaN             NaN
             NaN             NaN             NaN
             NaN             NaN             NaN
             NaN             NaN             NaN
             NaN             NaN             NaN
             NaN             NaN             NaN
             NaN             NaN             NaN
             NaN             NaN             NaN
             NaN             NaN             NaN
             NaN             NaN             NaN
             NaN             NaN             NaN
             NaN             NaN             NaN
             NaN             NaN             NaN
             NaN             NaN             NaN
             NaN             NaN             NaN
             NaN             NaN             NaN
             NaN             NaN             NaN
             NaN             NaN             NaN
             NaN             NaN             NaN
             NaN             NaN             NaN
             NaN             NaN             NaN
             NaN             NaN             NaN
             NaN             NaN             NaN
             NaN             NaN             NaN
             NaN             NaN             NaN
             NaN             NaN             NaN
             NaN             NaN             NaN
             NaN             NaN             NaN
             NaN             NaN             NaN
             NaN             NaN             NaN
             NaN             NaN             NaN
             NaN             NaN             NaN
             NaN             NaN             NaN
             NaN             NaN             NaN
             NaN             NaN             NaN
             NaN             NaN             NaN
             NaN             NaN             NaN
             NaN             NaN             NaN
             NaN             NaN             NaN
             NaN             NaN             NaN
             NaN             NaN             NaN
             NaN             NaN             NaN
             NaN             NaN             NaN
             NaN             NaN             NaN
             NaN             NaN             NaN
             NaN             NaN             NaN
             NaN             NaN             NaN
             NaN             NaN             NaN
             NaN             NaN             NaN
             NaN             NaN             NaN
             NaN             NaN             NaN
             NaN             NaN             NaN
             NaN             NaN             NaN
             NaN             NaN             NaN
             NaN             NaN             NaN
             NaN             NaN             NaN
             NaN             NaN             NaN
             NaN             NaN             NaN
             NaN             NaN             NaN
             NaN             NaN             NaN
             NaN             NaN             NaN
             NaN             NaN             NaN
             NaN             NaN             NaN
             NaN             NaN             NaN
             NaN             NaN             NaN
