Al   Hf   N                             
   1.00000000000000     
     9.9624130458503739   -0.0000047489717795    0.0000272520185669
    -4.9811955647194033    8.6121649378344838   -0.0000372259496778
     0.0000066745808443    0.0023947061281824    8.5544777646127077
   Al   Hf   N 
    35     1    36
Direct
  0.2216399067687860  0.1101171318003296  0.3629764428683302
  0.1091485147666660  0.2181010986720366  0.1095641643080967
  0.8884771279506296  0.1117412485114855  0.8577983753969107
  0.7779983903057044  0.2228351545549785  0.6092159691850227
  0.5551006960748808  0.1114431683477548  0.3632547219458857
  0.4421167952824732  0.2181056608458078  0.1095528713615366
  0.2220880413381963  0.1110127044565345  0.8577516891645089
  0.1158315099513203  0.2240801960871792  0.6110396910386982
  0.8895049393221868  0.1114416225458683  0.3632681055731126
  0.7770317876369504  0.2208979830744369  0.1117520861230332
  0.5564274260123341  0.1117403269246324  0.8577962490683007
  0.4414113486583702  0.2240774536133046  0.6110323331438750
  0.2119964594654604  0.4406136379188368  0.3501436869815251
  0.1092662289990116  0.5576901379555537  0.1086952540945347
  0.8877459252982334  0.4423274679418796  0.8635286559527344
  0.7875629474515122  0.5588715166660236  0.6142062484077400
  0.5617761477103898  0.4406156556607499  0.3501405869741845
  0.4443947545114710  0.5556233611706034  0.1083458613591120
  0.2154650695731846  0.4407098943575178  0.8690547082221727
  0.1044707814900079  0.5588685744920241  0.6142111571882509
  0.8891803946882391  0.4451991342995854  0.3588579737668525
  0.7815829844270112  0.5576876379905897  0.1086905195862116
  0.5584111330486010  0.4407104303021683  0.8690296183585033
  0.2216246376294393  0.7781881489349871  0.3583681317438661
  0.1115945460672094  0.8900239379718116  0.1098934394882392
  0.8895744650707087  0.7793355668899338  0.8628650573219474
  0.7809560808168214  0.8924111302602640  0.6100901745117042
  0.5583462903741392  0.7835284831208469  0.3541054036341365
  0.4443587260854898  0.8911079184974682  0.1103475938841427
  0.2229258818992292  0.7793354308351113  0.8628599817661353
  0.1092611374441361  0.8853603630682230  0.6115167122147653
  0.8897260097350497  0.7781887222370258  0.3583647636550964
  0.7799127458040900  0.8911095957170829  0.1103499269970314
  0.5581578092949684  0.7831527197138684  0.8642172054486323
  0.4446201310222193  0.8924132700235532  0.6100830697523136
  0.4363412186027915  0.5395285607791180  0.6043136704003373
  0.1097646419115037  0.2193400690652183  0.3463734819347764
  0.2218042946263452  0.1104454699857698  0.0964670890434434
  0.7776106273198167  0.2220597037924179  0.8465295032313094
  0.8911892674615487  0.1121210750546027  0.6000285656059177
  0.4427395087494332  0.2193456668255749  0.3463783418323985
  0.5567331496515351  0.1115736266318521  0.0978291351860250
  0.1099767526283983  0.2213696349327776  0.8511061318245936
  0.2177698116210394  0.1023766240244655  0.6000770524884587
  0.7776673889281795  0.2221685132426074  0.3509285908404820
  0.8880036869086680  0.1115732995188949  0.0978191936846073
  0.4445549903695891  0.2213650733450336  0.8511106017154617
  0.5540957807147606  0.1121219076089304  0.6000244283105829
  0.1089341772397958  0.5579320878593634  0.3414732559356537
  0.2199859649752440  0.4432625573264772  0.1020208832942231
  0.7795638200191775  0.5566342383418217  0.8535661861162822
  0.8893537939529850  0.4455448191337723  0.5984627858601996
  0.4438808871067010  0.5545964782926305  0.3444750824682501
  0.5564399971651994  0.4432637396034096  0.1020131478216655
  0.1102364456237126  0.5566300607340011  0.8535632662966535
  0.1932592218085887  0.4387759676026306  0.5930904237006516
  0.7821540608905408  0.5579285809240844  0.3414793454869454
  0.8874931144705229  0.4418239521845635  0.0974913743096266
  0.4446683879312019  0.5561793857106068  0.8620515352081313
  0.5786770218296553  0.4387787046693390  0.5931197949506739
  0.1107849139267572  0.8884053270276979  0.3469163814526226
  0.2233963190774872  0.7800568328997883  0.0981308212174881
  0.7781089765081859  0.8891476752767034  0.8499551238955121
  0.8886405082057962  0.7776457123896066  0.5987560604663855
  0.4435459192071747  0.8897663423813000  0.3483091757930694
  0.5565472135062564  0.7799309689982792  0.1021597192703823
  0.1104353856881701  0.8877080989606014  0.8496693763954610
  0.2221678252314021  0.7776442466390847  0.5987601379736631
  0.7793834712144658  0.8897684330254521  0.3483070460185616
  0.8898240944954026  0.7800565658014733  0.0981366659734064
  0.4442043797815245  0.8891498007856171  0.8499552829379198
  0.5625744756153637  0.7919852091683879  0.5982121587061400
 
             NaN             NaN             NaN
             NaN             NaN             NaN
             NaN             NaN             NaN
             NaN             NaN             NaN
             NaN             NaN             NaN
             NaN             NaN             NaN
             NaN             NaN             NaN
             NaN             NaN             NaN
             NaN             NaN             NaN
             NaN             NaN             NaN
             NaN             NaN             NaN
             NaN             NaN             NaN
             NaN             NaN             NaN
             NaN             NaN             NaN
             NaN             NaN             NaN
             NaN             NaN             NaN
             NaN             NaN             NaN
             NaN             NaN             NaN
             NaN             NaN             NaN
             NaN             NaN             NaN
             NaN             NaN             NaN
             NaN             NaN             NaN
             NaN             NaN             NaN
             NaN             NaN             NaN
             NaN             NaN             NaN
             NaN             NaN             NaN
             NaN             NaN             NaN
             NaN             NaN             NaN
             NaN             NaN             NaN
             NaN             NaN             NaN
             NaN             NaN             NaN
             NaN             NaN             NaN
             NaN             NaN             NaN
             NaN             NaN             NaN
             NaN             NaN             NaN
             NaN             NaN             NaN
             NaN             NaN             NaN
             NaN             NaN             NaN
             NaN             NaN             NaN
             NaN             NaN             NaN
             NaN             NaN             NaN
             NaN             NaN             NaN
             NaN             NaN             NaN
             NaN             NaN             NaN
             NaN             NaN             NaN
             NaN             NaN             NaN
             NaN             NaN             NaN
             NaN             NaN             NaN
             NaN             NaN             NaN
             NaN             NaN             NaN
             NaN             NaN             NaN
             NaN             NaN             NaN
             NaN             NaN             NaN
             NaN             NaN             NaN
             NaN             NaN             NaN
             NaN             NaN             NaN
             NaN             NaN             NaN
             NaN             NaN             NaN
             NaN             NaN             NaN
             NaN             NaN             NaN
             NaN             NaN             NaN
             NaN             NaN             NaN
             NaN             NaN             NaN
             NaN             NaN             NaN
             NaN             NaN             NaN
             NaN             NaN             NaN
             NaN             NaN             NaN
             NaN             NaN             NaN
             NaN             NaN             NaN
             NaN             NaN             NaN
             NaN             NaN             NaN
             NaN             NaN             NaN
