Al   Hf   N                             
   1.00000000000000     
     9.4355453795829138   -0.0000070408590298    0.0000200319634250
    -4.7177669223566303    8.1731968704721663    0.0007324334258363
    -0.0000198607362645    0.0009815936241003   10.0792858799016081
   Al   Hf   N 
    35     1    36
Direct
  0.2219700433501117  0.1107099325947729  0.2989577532244923
  0.1094250142926896  0.2196423212472141  0.0501322710595247
  0.8901291018820388  0.1118118740889358  0.7971147112550057
  0.7775589808463081  0.2218876709418467  0.5498762225049205
  0.5564597015029733  0.1109855793993404  0.2984094579734560
  0.4434475257536548  0.2196423163714769  0.0501322872457592
  0.2213748688337063  0.1095193852431180  0.8009023657984358
  0.1159890576067895  0.2232741961868783  0.5465882995341858
  0.8877560411494514  0.1109855806315636  0.2984094542974205
  0.7776336964814945  0.2220371674879544  0.0481082864663520
  0.5549131141772179  0.1118118593735815  0.7971147099877882
  0.4405154214926199  0.2232741765488768  0.5465883012153370
  0.2199515087761625  0.4420889611635701  0.2933061219296249
  0.1096804445380926  0.5568785051963729  0.0506561066460307
  0.8890898387034838  0.4449493467269221  0.7994296381847406
  0.7836067162531322  0.5557262436776966  0.5498642625158681
  0.5553675369719073  0.4420889549749987  0.2933061301986939
  0.4447538501913044  0.5562775322175852  0.0473680457935757
  0.2138156453847344  0.4413662709614385  0.8080822326700243
  0.1053497991074792  0.5557262404267291  0.5498642354381715
  0.8882109289719224  0.4431917598159600  0.3000225609990821
  0.7804282252076646  0.5568784929393189  0.0506561052351628
  0.5607809299803250  0.4413662421884865  0.8080822482533279
  0.2225536423764609  0.7780477831044479  0.2999646354061341
  0.1107717508879560  0.8883132988082423  0.0500397406231414
  0.8894931416662786  0.7779915039663052  0.7994992893454409
  0.7822943739803279  0.8947709715867518  0.5484923551261005
  0.5578042084218282  0.7823782944565991  0.2927668931913345
  0.4438281484127771  0.8901808845839838  0.0480345974469572
  0.2217286894412567  0.7779914995308417  0.7994992848529989
  0.1107109913100288  0.8881916974503312  0.5502029925180665
  0.8887242732611824  0.7780477748357342  0.2999646458890126
  0.7795829318976217  0.8901808708763923  0.0480345981909451
  0.5587983237301657  0.7843663207369218  0.8018085306412459
  0.4457068576403174  0.8947709454262238  0.5484923533929091
  0.4375467132192483  0.5418630927648778  0.5550111772653281
  0.1092466665105931  0.2211928539653556  0.3545220014563597
  0.2216428841889524  0.1100555934301610  0.1089622709150930
  0.7777820042439814  0.2223336762163655  0.8571325978823481
  0.8922717911579667  0.1133017692436198  0.6069049249862815
  0.4451763327358549  0.2211928323759409  0.3545219928491150
  0.5564610380416113  0.1108651261851250  0.1081845656879139
  0.1097322405604828  0.2194600562241149  0.8613023769805324
  0.2196566791305514  0.1060830723456121  0.6118096553113688
  0.7775913452944394  0.2219525342063733  0.3588859882576259
  0.8876342788356695  0.1108651168021240  0.1081845609375236
  0.4429581436565115  0.2194600332179135  0.8613023978536773
  0.5542602531949257  0.1133017456809711  0.6069049218910365
  0.1117238612476186  0.5547989288903921  0.3585883712088176
  0.2211917836497577  0.4440885209722509  0.1035797809104437
  0.7819030610738125  0.5578060860777043  0.8622008179828171
  0.8887022803837681  0.4441742940478335  0.6090516849284526
  0.4462129891258471  0.5591959018020134  0.3407193212674571
  0.5561268779811570  0.4440885248535480  0.1035797881720768
  0.1091333338508562  0.5578060857581804  0.8622008188276524
  0.1949576264291224  0.4354173408007611  0.6216093002198022
  0.7763051474033205  0.5547989213938962  0.3585883985356588
  0.8883995073946167  0.4435688763721473  0.1101852933133216
  0.4443809027383026  0.5555314984584996  0.8516098357403123
  0.5736899829840922  0.4354172902191138  0.6216093329058978
  0.1108383722482955  0.8884466138640263  0.3594742768928612
  0.2225498619159580  0.7782910185283214  0.1098412186100859
  0.7800831111238367  0.8901980906894380  0.8584947139551602
  0.8880517175671017  0.7774084144697042  0.6081688690697220
  0.4449458232837102  0.8889107334816444  0.3575624960841850
  0.5564605988023743  0.7796910237020285  0.1028040658044560
  0.1105490291807030  0.8878677379246938  0.8599436673609731
  0.2225869557425639  0.7774084012553004  0.6081688655019306
  0.7771950409324759  0.8889107383664623  0.3575624979928804
  0.8889713245042898  0.7782910059975237  0.1098412243508733
  0.4433452953611905  0.8901980767959756  0.8584947132337888
  0.5652474080192036  0.7972645388093156  0.6123831604246561
 
             NaN             NaN             NaN
             NaN             NaN             NaN
             NaN             NaN             NaN
             NaN             NaN             NaN
             NaN             NaN             NaN
             NaN             NaN             NaN
             NaN             NaN             NaN
             NaN             NaN             NaN
             NaN             NaN             NaN
             NaN             NaN             NaN
             NaN             NaN             NaN
             NaN             NaN             NaN
             NaN             NaN             NaN
             NaN             NaN             NaN
             NaN             NaN             NaN
             NaN             NaN             NaN
             NaN             NaN             NaN
             NaN             NaN             NaN
             NaN             NaN             NaN
             NaN             NaN             NaN
             NaN             NaN             NaN
             NaN             NaN             NaN
             NaN             NaN             NaN
             NaN             NaN             NaN
             NaN             NaN             NaN
             NaN             NaN             NaN
             NaN             NaN             NaN
             NaN             NaN             NaN
             NaN             NaN             NaN
             NaN             NaN             NaN
             NaN             NaN             NaN
             NaN             NaN             NaN
             NaN             NaN             NaN
             NaN             NaN             NaN
             NaN             NaN             NaN
             NaN             NaN             NaN
             NaN             NaN             NaN
             NaN             NaN             NaN
             NaN             NaN             NaN
             NaN             NaN             NaN
             NaN             NaN             NaN
             NaN             NaN             NaN
             NaN             NaN             NaN
             NaN             NaN             NaN
             NaN             NaN             NaN
             NaN             NaN             NaN
             NaN             NaN             NaN
             NaN             NaN             NaN
             NaN             NaN             NaN
             NaN             NaN             NaN
             NaN             NaN             NaN
             NaN             NaN             NaN
             NaN             NaN             NaN
             NaN             NaN             NaN
             NaN             NaN             NaN
             NaN             NaN             NaN
             NaN             NaN             NaN
             NaN             NaN             NaN
             NaN             NaN             NaN
             NaN             NaN             NaN
             NaN             NaN             NaN
             NaN             NaN             NaN
             NaN             NaN             NaN
             NaN             NaN             NaN
             NaN             NaN             NaN
             NaN             NaN             NaN
             NaN             NaN             NaN
             NaN             NaN             NaN
             NaN             NaN             NaN
             NaN             NaN             NaN
             NaN             NaN             NaN
             NaN             NaN             NaN
