Al   Hf   N                             
   1.00000000000000     
     9.8584469350574349   -0.0000053366351770    0.0000254007223767
    -4.9292262408716923    8.5249322474636955    0.0001601226081463
    -0.0000069019745734   -0.0051245782744394    8.8725163415336574
   Al   Hf   N 
    35     1    36
Direct
  0.2221812937232599  0.1112005695918867  0.3430849049128071
  0.1086970193928991  0.2172758704029576  0.0914972541190835
  0.8901203952984247  0.1112758821607756  0.8359683699242524
  0.7780163233803279  0.2228673607814002  0.5922367153010271
  0.5571545346970623  0.1117737524407971  0.3421557672024917
  0.4417406172327958  0.2172716102861827  0.0914954211078438
  0.2214606026169719  0.1097581139223109  0.8367124869181808
  0.1158559829751198  0.2248367502943864  0.5876158613443678
  0.8877816101405855  0.1117735455070630  0.3421507886913986
  0.7771302542623033  0.2211006709294949  0.0870365071093104
  0.5543175360669039  0.1112750503384348  0.8359597853548308
  0.4421430770827115  0.2248390283401989  0.5876138123512789
  0.2181214195661951  0.4413108182228669  0.3309456776858468
  0.1088510070599966  0.5579151213716074  0.0935773871188630
  0.8898031592218913  0.4464427900037080  0.8400010847830544
  0.7860985115852657  0.5579193854826698  0.5850845318442310
  0.5563511040459090  0.4413101133191191  0.3309352300881159
  0.4445972096965676  0.5560341852611543  0.0924604252658838
  0.2105729266553027  0.4403867416614773  0.8532941375437559
  0.1049851191337510  0.5579224110642684  0.5850846540792958
  0.8872833412269188  0.4414041978626955  0.3381926372091897
  0.7822303509323092  0.5579176612092382  0.0935771651408643
  0.5629778960646448  0.4403854523969954  0.8533011590872732
  0.2231959085798891  0.7795640242662714  0.3382331463503974
  0.1116259470535681  0.8900915006548402  0.0902558049521005
  0.8897366434908918  0.7777414851722213  0.8408610454556964
  0.7807950378438946  0.8924883710931510  0.5894289070127030
  0.5578516259060464  0.7825404910482590  0.3349852630871126
  0.4440806630802783  0.8913521449657082  0.0893200646522132
  0.2211682094591794  0.7777420395718337  0.8408652797995160
  0.1093107861646772  0.8854574621908782  0.5886757733337689
  0.8895294050647138  0.7795639354825212  0.3382391270952425
  0.7804339279705630  0.8913500480894996  0.0893198914465216
  0.5587224548745624  0.7842830916985832  0.8464994059484638
  0.4448534849994488  0.8924855163944798  0.5894254123495131
  0.4362984696840542  0.5394267838265421  0.6034083732485058
  0.1099642554975588  0.2222964077764757  0.3654964113078520
  0.2216201064289081  0.1100781037897747  0.1227312870276123
  0.7777204418140684  0.2222811154502793  0.8654561114130175
  0.8916112830331500  0.1121278151602638  0.6165291228542671
  0.4454947783257026  0.2222987077172860  0.3654960161347418
  0.5571917827644626  0.1115569427544756  0.1206597845757713
  0.1094885544397997  0.2181557913691634  0.8720774831915747
  0.2183295221961359  0.1034967197643795  0.6168621625129163
  0.7776669946191035  0.2221691671725807  0.3721233828777244
  0.8875278770628015  0.1115571951029395  0.1206531203132215
  0.4418295923023479  0.2181519287680658  0.8720782594125041
  0.5536785733544889  0.1121269098987341  0.6165219024314439
  0.1111046313559214  0.5558439982498911  0.3636684368147201
  0.2205500667990350  0.4434602395282425  0.1116501136173795
  0.7833977644410766  0.5585783692782229  0.8768193662627013
  0.8896977610426902  0.4462316327864428  0.6185561485584117
  0.4452801379289753  0.5573939588823151  0.3530535592556987
  0.5560726928830135  0.4434594834753369  0.1116425846364706
  0.1083450552317942  0.5585760218586699  0.8768177771109293
  0.1918494671700373  0.4375029550237244  0.6300472302540427
  0.7778984211131856  0.5558411776856502  0.3636686318210138
  0.8873303924370362  0.4414976069114260  0.1208279544128530
  0.4435088978534836  0.5538563491586430  0.8647583863181865
  0.5788183451738149  0.4375004729995666  0.6300587631524195
  0.1103729081514189  0.8875823192807957  0.3688675466311224
  0.2232711704566910  0.7802086690947974  0.1199590296514828
  0.7802512882454309  0.8901941427846438  0.8693515656626758
  0.8882540140233601  0.7771444704953083  0.6186254961875619
  0.4444709307362587  0.8887948609279732  0.3677214231908437
  0.5565023270761884  0.7798420315496699  0.1124467888695122
  0.1109607329472979  0.8887604564372964  0.8703453639361172
  0.2220532920095124  0.7771454589581737  0.6186299495209866
  0.7774864635245322  0.8887973610719442  0.3677229540287215
  0.8900996347862247  0.7802088727509329  0.1199644717041437
  0.4431075404841209  0.8901963210144430  0.8693524057242570
  0.5633177243075735  0.7934734908452938  0.6212830787957486
 
             NaN             NaN             NaN
             NaN             NaN             NaN
             NaN             NaN             NaN
             NaN             NaN             NaN
             NaN             NaN             NaN
             NaN             NaN             NaN
             NaN             NaN             NaN
             NaN             NaN             NaN
             NaN             NaN             NaN
             NaN             NaN             NaN
             NaN             NaN             NaN
             NaN             NaN             NaN
             NaN             NaN             NaN
             NaN             NaN             NaN
             NaN             NaN             NaN
             NaN             NaN             NaN
             NaN             NaN             NaN
             NaN             NaN             NaN
             NaN             NaN             NaN
             NaN             NaN             NaN
             NaN             NaN             NaN
             NaN             NaN             NaN
             NaN             NaN             NaN
             NaN             NaN             NaN
             NaN             NaN             NaN
             NaN             NaN             NaN
             NaN             NaN             NaN
             NaN             NaN             NaN
             NaN             NaN             NaN
             NaN             NaN             NaN
             NaN             NaN             NaN
             NaN             NaN             NaN
             NaN             NaN             NaN
             NaN             NaN             NaN
             NaN             NaN             NaN
             NaN             NaN             NaN
             NaN             NaN             NaN
             NaN             NaN             NaN
             NaN             NaN             NaN
             NaN             NaN             NaN
             NaN             NaN             NaN
             NaN             NaN             NaN
             NaN             NaN             NaN
             NaN             NaN             NaN
             NaN             NaN             NaN
             NaN             NaN             NaN
             NaN             NaN             NaN
             NaN             NaN             NaN
             NaN             NaN             NaN
             NaN             NaN             NaN
             NaN             NaN             NaN
             NaN             NaN             NaN
             NaN             NaN             NaN
             NaN             NaN             NaN
             NaN             NaN             NaN
             NaN             NaN             NaN
             NaN             NaN             NaN
             NaN             NaN             NaN
             NaN             NaN             NaN
             NaN             NaN             NaN
             NaN             NaN             NaN
             NaN             NaN             NaN
             NaN             NaN             NaN
             NaN             NaN             NaN
             NaN             NaN             NaN
             NaN             NaN             NaN
             NaN             NaN             NaN
             NaN             NaN             NaN
             NaN             NaN             NaN
             NaN             NaN             NaN
             NaN             NaN             NaN
             NaN             NaN             NaN
