Al   Hf   N                             
   1.00000000000000     
     9.4975013983203276   -0.0000037499440037    0.0000303992220903
    -4.7487436384843900    8.2222335720272337   -0.0003727184979788
    -0.0000199108887167    0.0075322904806546    9.9221934000195500
   Al   Hf   N 
    35     1    36
Direct
  0.2214348475124126  0.1097068805452608  0.3818828845749422
  0.1092879953530357  0.2193284796210193  0.1314071000159274
  0.8877188494610806  0.1113356648478785  0.8836850040998243
  0.7775012603512081  0.2218400791971646  0.6319967217908840
  0.5546057374879183  0.1113864598485392  0.3852833213945033
  0.4432036474559808  0.2193291638816817  0.1314071839984408
  0.2220441294321915  0.1109249812808173  0.8828462846850300
  0.1145112891978002  0.2229102440844315  0.6361092536584749
  0.8899435443485615  0.1113863659351750  0.3852842016367362
  0.7775912876415703  0.2220192942788586  0.1345279681535203
  0.5567798779792170  0.1113357826131320  0.8836855461158137
  0.4415617384305861  0.2229099182240475  0.6361090684506081
  0.2110959569267479  0.4400721507862713  0.3733582913730160
  0.1095855179686893  0.5571862269630614  0.1308236203038291
  0.8880719386227938  0.4429806872575313  0.8823942958792372
  0.7836926819493613  0.5557314554956392  0.6333939632464833
  0.5621387146902350  0.4400724034335965  0.3733596153782699
  0.4447184731684146  0.5562737076568922  0.1366090713937282
  0.2215441306544008  0.4431178044115214  0.8882046729577127
  0.1052008495286785  0.5557308181864400  0.6333936907038407
  0.8892245483202217  0.4452865660611707  0.3831571170994081
  0.7807631160799247  0.5571858535656489  0.1308237303494550
  0.5547369726845091  0.4431180668904915  0.8882038326907065
  0.2216495620668582  0.7779394597377163  0.3829451083233621
  0.1109094077295083  0.8886554208145867  0.1325770109312003
  0.8889972652387570  0.7784583788114361  0.8824998743511046
  0.7817493859503699  0.8942869802358970  0.6344595978752849
  0.5593839682983202  0.7856050749210510  0.3808478669513633
  0.4438265865684059  0.8901723602533309  0.1338315999448056
  0.2226244641943111  0.7784582793574444  0.8824990659186369
  0.1106996406640590  0.8882365436929760  0.6321549222966496
  0.8894527690759801  0.7779395440781443  0.3829446360038062
  0.7795086772607362  0.8901725876508948  0.1338316383111788
  0.5572861657534887  0.7814091603387467  0.8884685498571017
  0.4457008098140491  0.8942874413695421  0.6344593165743504
  0.4367430902591991  0.5403253502237462  0.6199864514823190
  0.1092367764701407  0.2186677393767766  0.3227332062068626
  0.2215863671634395  0.1100093914927029  0.0751570427249604
  0.7776397581094159  0.2221167485948428  0.8252723816935159
  0.8917107531950208  0.1125975890672706  0.5777505627526835
  0.4425939932617879  0.2186684634763694  0.3227333943087061
  0.5567565279658879  0.1110547372184030  0.0762341559669224
  0.1094907347111800  0.2217193086710694  0.8302248529613081
  0.2201279193639252  0.1070928111321905  0.5737366868488891
  0.7777555302404551  0.2223478582503802  0.3279454609896888
  0.8874611508224461  0.1110545967806331  0.0762335886773187
  0.4453917852878675  0.2217193168918143  0.8302245090273885
  0.5540498333111472  0.1125978067655637  0.5777496694448772
  0.1087037875327042  0.5581434897484314  0.3216499960106773
  0.2219562040461653  0.4445763111833330  0.0813480029176290
  0.7764872982357431  0.5550595083565497  0.8269103430435791
  0.8889038856555587  0.4446456788470314  0.5759513298567924
  0.4438952186962837  0.5546277056342817  0.3368416928735058
  0.5557831923303809  0.4445764611439529  0.0813470990464396
  0.1117354104027726  0.5550590336178374  0.8269101708620141
  0.1917525358654544  0.4336836536111406  0.5625470372407690
  0.7826017694204097  0.5581431478957342  0.3216502445994820
  0.8882307497383195  0.4432985230275364  0.0743485648325617
  0.4463931736164355  0.5596235564198935  0.8397086541174374
  0.5750933336825241  0.4336843725298110  0.5625484473125724
  0.1106433421462540  0.8881235597661856  0.3251719436465024
  0.2225492537563127  0.7788115606306576  0.0748296184450155
  0.7774519019945600  0.8892019306120034  0.8275824383281503
  0.8879258752476318  0.7773401766189068  0.5766612194695782
  0.4431515857975370  0.8900322680833312  0.3258488335292355
  0.5560488994137955  0.7789347349714859  0.0819193293417797
  0.1109110265969377  0.8886589612523679  0.8250805875022138
  0.2225772495445284  0.7773399687619147  0.5766616678971488
  0.7800435387693625  0.8900325078913980  0.3258488701997280
  0.8894255227998258  0.7788115598166669  0.0748303554694942
  0.4449136310250665  0.8892023546611014  0.8275821988658478
  0.5657307322396292  0.7982983946326172  0.5728707403414930
 
             NaN             NaN             NaN
             NaN             NaN             NaN
             NaN             NaN             NaN
             NaN             NaN             NaN
             NaN             NaN             NaN
             NaN             NaN             NaN
             NaN             NaN             NaN
             NaN             NaN             NaN
             NaN             NaN             NaN
             NaN             NaN             NaN
             NaN             NaN             NaN
             NaN             NaN             NaN
             NaN             NaN             NaN
             NaN             NaN             NaN
             NaN             NaN             NaN
             NaN             NaN             NaN
             NaN             NaN             NaN
             NaN             NaN             NaN
             NaN             NaN             NaN
             NaN             NaN             NaN
             NaN             NaN             NaN
             NaN             NaN             NaN
             NaN             NaN             NaN
             NaN             NaN             NaN
             NaN             NaN             NaN
             NaN             NaN             NaN
             NaN             NaN             NaN
             NaN             NaN             NaN
             NaN             NaN             NaN
             NaN             NaN             NaN
             NaN             NaN             NaN
             NaN             NaN             NaN
             NaN             NaN             NaN
             NaN             NaN             NaN
             NaN             NaN             NaN
             NaN             NaN             NaN
             NaN             NaN             NaN
             NaN             NaN             NaN
             NaN             NaN             NaN
             NaN             NaN             NaN
             NaN             NaN             NaN
             NaN             NaN             NaN
             NaN             NaN             NaN
             NaN             NaN             NaN
             NaN             NaN             NaN
             NaN             NaN             NaN
             NaN             NaN             NaN
             NaN             NaN             NaN
             NaN             NaN             NaN
             NaN             NaN             NaN
             NaN             NaN             NaN
             NaN             NaN             NaN
             NaN             NaN             NaN
             NaN             NaN             NaN
             NaN             NaN             NaN
             NaN             NaN             NaN
             NaN             NaN             NaN
             NaN             NaN             NaN
             NaN             NaN             NaN
             NaN             NaN             NaN
             NaN             NaN             NaN
             NaN             NaN             NaN
             NaN             NaN             NaN
             NaN             NaN             NaN
             NaN             NaN             NaN
             NaN             NaN             NaN
             NaN             NaN             NaN
             NaN             NaN             NaN
             NaN             NaN             NaN
             NaN             NaN             NaN
             NaN             NaN             NaN
             NaN             NaN             NaN
