Al   Hf   N                             
   1.00000000000000     
     9.9426710963074143   -0.0000046902054398    0.0000274371481859
    -4.9713243463170622    8.5955723844887562   -0.0000569608054602
     0.0000042520438913    0.0028877655281710    8.6137214234122794
   Al   Hf   N 
    35     1    36
Direct
  0.2215959366581828  0.1100291507255093  0.3652095383885055
  0.1090419698962179  0.2178926510426464  0.1113066150640165
  0.8883167259104425  0.1117714779532477  0.8597167126656871
  0.7780243545380401  0.2228875690306538  0.6108478941785123
  0.5549044058970267  0.1114009539336394  0.3655579129164863
  0.4420148694078776  0.2178975711077911  0.1112974885526086
  0.2221181581898648  0.1110730509335127  0.8595130935947637
  0.1158903946032694  0.2242828930050962  0.6133309203696129
  0.8896590695617306  0.1113994857410816  0.3655707592390485
  0.7770415047820762  0.2209170009406094  0.1141393351550164
  0.5566180709995763  0.1117705962228825  0.8597172874089338
  0.4415552313665145  0.2242798142442339  0.6133252731434098
  0.2116971430869228  0.4406068659722067  0.3512375373718584
  0.1091734497496901  0.5577366048220611  0.1100863063801469
  0.8875963590970244  0.4420283768752356  0.8653050274216127
  0.7873213819895710  0.5587192742336313  0.6167160125203708
  0.5620692904867681  0.4406087506072964  0.3512381375500908
  0.4444317117170371  0.5556970543328177  0.1097953099748494
  0.2160602009832360  0.4408030054193333  0.8711619275470284
  0.1045600287889954  0.5587159400814414  0.6167193843239929
  0.8893616405017966  0.4455615354513611  0.3611154629227542
  0.7817219070551573  0.5577337556682664  0.1100827688567563
  0.5579086009783012  0.4408036988616075  0.8711392841026608
  0.2214783401487566  0.7780438031864492  0.3605232447669309
  0.1116185149520206  0.8900715276041282  0.1118526755916207
  0.8895704094727819  0.7794286437054865  0.8647353654493415
  0.7809103138648013  0.8923855828541321  0.6121660455899161
  0.5583955280415935  0.7836269202210104  0.3557135571182428
  0.4443056688483864  0.8911942604187004  0.1124337735063250
  0.2230229049591514  0.7794284655704615  0.8647293137198062
  0.1092350988603812  0.8853086406886632  0.6136361229730269
  0.8897280220213801  0.7780443614162351  0.3605188326023310
  0.7800521584261162  0.8911963327345944  0.1124351876739880
  0.5580932724355989  0.7830236639113153  0.8663270360371840
  0.4446407449630030  0.8923881371562246  0.6121598183804267
  0.4363356107047025  0.5395176682507170  0.6044217677179944
  0.1097107594981921  0.2190582756786057  0.3442421411709660
  0.2217663903278932  0.1103697251046540  0.0939802133678853
  0.7776335777322387  0.2221058239516296  0.8442331808059578
  0.8912932168072913  0.1121188899826393  0.5984157542620991
  0.4425114386773927  0.2190636952687299  0.3442456030303802
  0.5568496496065407  0.1115886061311926  0.0955581968546610
  0.1100061089620183  0.2216282729540495  0.8493641985206537
  0.2178371183532875  0.1025111800266458  0.5984279337895018
  0.7776729588466864  0.2221794359146969  0.3493296830043136
  0.8879022593132433  0.1115883571435035  0.0955486019746985
  0.4447844067480275  0.2216239157862532  0.8493675548873725
  0.5539896648935780  0.1121198282904388  0.5984101326688958
  0.1088039890179999  0.5580778927799770  0.3391527592622339
  0.2201128011082432  0.4432849493889748  0.1011159174782605
  0.7791779653870776  0.5564434168880084  0.8518124417060875
  0.8894554888786317  0.4457483330603935  0.5965671557084633
  0.4437852442649586  0.5544053038328229  0.3444442938551830
  0.5563355578017379  0.4432861331474527  0.1011073501756954
  0.1104311567901490  0.5564393130714791  0.8518103791646752
  0.1929752511562910  0.4386033117794241  0.5897896914509886
  0.7824304891397205  0.5580744364923831  0.3391575661813562
  0.8874340464267334  0.4417057129886715  0.0953687097224432
  0.4447835439911572  0.5564095142720120  0.8609917036710968
  0.5787883049369142  0.4386061852071634  0.5898154881124924
  0.1108383536512250  0.8885119626012070  0.3449840981004471
  0.2233830705379845  0.7801132145180176  0.0960662918183459
  0.7779409515350366  0.8890365106513727  0.8480018892989136
  0.8885554393699380  0.7775135072848514  0.5968214146557784
  0.4434457734551529  0.8898835258036613  0.3463720793393321
  0.5565337619592015  0.7799041198302419  0.1011024236349840
  0.1103975543727813  0.8876327131398654  0.8475115260183657
  0.2221206811929406  0.7775120551169508  0.5968262316221953
  0.7796008748389056  0.8898858556482807  0.3463701514709001
  0.8898937865784546  0.7801129642601268  0.0960726419095366
  0.4442613928963723  0.8890388440530543  0.8480013552570966
  0.5626872435592603  0.7922106288111124  0.5958599727076077
 
             NaN             NaN             NaN
             NaN             NaN             NaN
             NaN             NaN             NaN
             NaN             NaN             NaN
             NaN             NaN             NaN
             NaN             NaN             NaN
             NaN             NaN             NaN
             NaN             NaN             NaN
             NaN             NaN             NaN
             NaN             NaN             NaN
             NaN             NaN             NaN
             NaN             NaN             NaN
             NaN             NaN             NaN
             NaN             NaN             NaN
             NaN             NaN             NaN
             NaN             NaN             NaN
             NaN             NaN             NaN
             NaN             NaN             NaN
             NaN             NaN             NaN
             NaN             NaN             NaN
             NaN             NaN             NaN
             NaN             NaN             NaN
             NaN             NaN             NaN
             NaN             NaN             NaN
             NaN             NaN             NaN
             NaN             NaN             NaN
             NaN             NaN             NaN
             NaN             NaN             NaN
             NaN             NaN             NaN
             NaN             NaN             NaN
             NaN             NaN             NaN
             NaN             NaN             NaN
             NaN             NaN             NaN
             NaN             NaN             NaN
             NaN             NaN             NaN
             NaN             NaN             NaN
             NaN             NaN             NaN
             NaN             NaN             NaN
             NaN             NaN             NaN
             NaN             NaN             NaN
             NaN             NaN             NaN
             NaN             NaN             NaN
             NaN             NaN             NaN
             NaN             NaN             NaN
             NaN             NaN             NaN
             NaN             NaN             NaN
             NaN             NaN             NaN
             NaN             NaN             NaN
             NaN             NaN             NaN
             NaN             NaN             NaN
             NaN             NaN             NaN
             NaN             NaN             NaN
             NaN             NaN             NaN
             NaN             NaN             NaN
             NaN             NaN             NaN
             NaN             NaN             NaN
             NaN             NaN             NaN
             NaN             NaN             NaN
             NaN             NaN             NaN
             NaN             NaN             NaN
             NaN             NaN             NaN
             NaN             NaN             NaN
             NaN             NaN             NaN
             NaN             NaN             NaN
             NaN             NaN             NaN
             NaN             NaN             NaN
             NaN             NaN             NaN
             NaN             NaN             NaN
             NaN             NaN             NaN
             NaN             NaN             NaN
             NaN             NaN             NaN
             NaN             NaN             NaN
