Al   Hf   N                             
   1.00000000000000     
     9.4355602907200158   -0.0000031035142665    0.0000324356478996
    -4.7177773598463322    8.1732020620602128   -0.0005898019115854
    -0.0000341619057700   -0.0010761229176549   10.0792513118945148
   Al   Hf   N 
    35     1    36
Direct
  0.2212922252866676  0.1094669325859527  0.3996937373922336
  0.1093439509961556  0.2195925434823636  0.1504634893444177
  0.8876758101179476  0.1109364135897764  0.9021837625464073
  0.7774762930689363  0.2218350820450610  0.6507188622501161
  0.5548313190425915  0.1117584642990934  0.4034756409083968
  0.4433661463699892  0.2195925611699252  0.1504634845759512
  0.2218898125299660  0.1106620955961191  0.9016366395188982
  0.1159035770659571  0.2232204052194220  0.6540020976792604
  0.8900446645354734  0.1117584565317529  0.4034756347098778
  0.7775524712456772  0.2219873762065703  0.1524837858756101
  0.5563781458872086  0.1109364595496629  0.9021837487789739
  0.4404342813814921  0.2232204126175361  0.6540021005690306
  0.2137309097023987  0.4413133216965335  0.3925141504550211
  0.1095993031195874  0.5568286240109828  0.1499406135406574
  0.8881300068741211  0.4431425046301101  0.9005752510161571
  0.7835250498832664  0.5556745311102631  0.6507343260747618
  0.5606998866326478  0.4413133095596962  0.3925141532189187
  0.4446719382036548  0.5562263914947749  0.1532256232416245
  0.2198711235130020  0.4420397559038491  0.9072873863408049
  0.1052669174586072  0.5556745063536823  0.6507343296120780
  0.8890072882247750  0.4448970659008609  0.4011676667299326
  0.7803468039877828  0.5568285942446352  0.1499406272584807
  0.5552861422157136  0.4420398043410572  0.9072873865885569
  0.2216464556965789  0.7779393364173046  0.4010975277604771
  0.1106908776321944  0.8882641984285087  0.1505582320000229
  0.8886438908911529  0.7779990823682184  0.9006330911867053
  0.7822111763844717  0.8947182958695521  0.6521018992544896
  0.5587158683460558  0.7843142363544402  0.3987850981282008
  0.4437467646046258  0.8901302718329163  0.1525578813565573
  0.2224727501925301  0.7779990855767309  0.9006330826297528
  0.1106286416222630  0.8881397628262491  0.6503948492853553
  0.8894104184203186  0.7779393359352511  0.4010975294260888
  0.7795010196513559  0.8901302237223305  0.1525578970196619
  0.5577222961001027  0.7823270741419464  0.9078257625982360
  0.4456246102345247  0.8947183104641923  0.6521018970188308
  0.4374630148347833  0.5418085853867893  0.6455766981579956
  0.1096497948715438  0.2194080864176868  0.3392930655182269
  0.2215622093454002  0.1100068834750587  0.0916329607392328
  0.7775106798966434  0.2219038216984472  0.8417092055286020
  0.8921873285492339  0.1132484417869222  0.5936864414023972
  0.4428758107178723  0.2194080857212910  0.3392930629958570
  0.5563795883894187  0.1108159286569119  0.0924090543202070
  0.1091660072331422  0.2211442877012288  0.8460698053152100
  0.2195743450708960  0.1060312103972905  0.5887856822352546
  0.7777002191167171  0.2222829230753902  0.3434594869269390
  0.8875538612051770  0.1108158795879248  0.0924090638641601
  0.4450957950998813  0.2211443213524902  0.8460698070291670
  0.5541786049550410  0.1132484661560724  0.5936864496758076
  0.1090507649475470  0.5577547101938762  0.3383956437422313
  0.2211109277223144  0.4440392101300077  0.0970148004218885
  0.7762253668418140  0.5547505936054762  0.8420093266974646
  0.8886201579361952  0.4441228698939028  0.5915454986500492
  0.4442977341380541  0.5554779940416452  0.3489874777679489
  0.5560457816409325  0.4440392293826747  0.0970148006813574
  0.1116427208837791  0.5547505863253122  0.8420093289578219
  0.1948713621685982  0.4353644221508617  0.5789863398900224
  0.7818214371404935  0.5577547009094275  0.3383956540955637
  0.8883188440948402  0.4435201827158792  0.0904114101954789
  0.4461317219580963  0.5591459680111370  0.8598697781094629
  0.5736105186878930  0.4353644361096585  0.5789863428920441
  0.1104668791519856  0.8878162179969067  0.3406536910652989
  0.2224683044517306  0.7782418983072574  0.0907557685209994
  0.7771145607623069  0.8888616146514892  0.8430322489159892
  0.8879696558394201  0.7773566636778853  0.5924276169961331
  0.4432625731201298  0.8901452182261522  0.3420980030996787
  0.5563786726756632  0.7796398206781561  0.0977891881847270
  0.1107578352281493  0.8883981271585597  0.8411229547284407
  0.2225045033091746  0.7773566490423320  0.5924276177666812
  0.7800001662502325  0.8901452027740078  0.3420980154634989
  0.8888911361503631  0.7782418762550236  0.0907557795215155
  0.4448645975938987  0.8888616400255671  0.8430322443794793
  0.5651651671216982  0.7972128457467349  0.5882111000748154
 
             NaN             NaN             NaN
             NaN             NaN             NaN
             NaN             NaN             NaN
             NaN             NaN             NaN
             NaN             NaN             NaN
             NaN             NaN             NaN
             NaN             NaN             NaN
             NaN             NaN             NaN
             NaN             NaN             NaN
             NaN             NaN             NaN
             NaN             NaN             NaN
             NaN             NaN             NaN
             NaN             NaN             NaN
             NaN             NaN             NaN
             NaN             NaN             NaN
             NaN             NaN             NaN
             NaN             NaN             NaN
             NaN             NaN             NaN
             NaN             NaN             NaN
             NaN             NaN             NaN
             NaN             NaN             NaN
             NaN             NaN             NaN
             NaN             NaN             NaN
             NaN             NaN             NaN
             NaN             NaN             NaN
             NaN             NaN             NaN
             NaN             NaN             NaN
             NaN             NaN             NaN
             NaN             NaN             NaN
             NaN             NaN             NaN
             NaN             NaN             NaN
             NaN             NaN             NaN
             NaN             NaN             NaN
             NaN             NaN             NaN
             NaN             NaN             NaN
             NaN             NaN             NaN
             NaN             NaN             NaN
             NaN             NaN             NaN
             NaN             NaN             NaN
             NaN             NaN             NaN
             NaN             NaN             NaN
             NaN             NaN             NaN
             NaN             NaN             NaN
             NaN             NaN             NaN
             NaN             NaN             NaN
             NaN             NaN             NaN
             NaN             NaN             NaN
             NaN             NaN             NaN
             NaN             NaN             NaN
             NaN             NaN             NaN
             NaN             NaN             NaN
             NaN             NaN             NaN
             NaN             NaN             NaN
             NaN             NaN             NaN
             NaN             NaN             NaN
             NaN             NaN             NaN
             NaN             NaN             NaN
             NaN             NaN             NaN
             NaN             NaN             NaN
             NaN             NaN             NaN
             NaN             NaN             NaN
             NaN             NaN             NaN
             NaN             NaN             NaN
             NaN             NaN             NaN
             NaN             NaN             NaN
             NaN             NaN             NaN
             NaN             NaN             NaN
             NaN             NaN             NaN
             NaN             NaN             NaN
             NaN             NaN             NaN
             NaN             NaN             NaN
             NaN             NaN             NaN
