Al   Hf   N                             
   1.00000000000000     
     9.6316537693972286   -0.0000039850093627    0.0000296587036142
    -4.8158166998746381    8.3339696827147840   -0.0002937790748492
    -0.0000131228787319    0.0080416803377500    9.5520229227575015
   Al   Hf   N 
    35     1    36
Direct
  0.2213942772836788  0.1096256640539863  0.3798001773018242
  0.1087916492607093  0.2181445908261921  0.1274961106049304
  0.8874621059957377  0.1114587768814275  0.8792396392051032
  0.7777103489845416  0.2222595612540417  0.6277319731683804
  0.5542517713233224  0.1112458708536721  0.3825386934146593
  0.4425167228342062  0.2181475049721087  0.1274960561561684
  0.2221080946579832  0.1110526018106910  0.8782350374470766
  0.1144305726561470  0.2238089782058879  0.6329494674377472
  0.8901571173600473  0.1112455663696537  0.3825429805234535
  0.7774227709914214  0.2216808317796435  0.1318257312909878
  0.5571597325349344  0.1114588414591822  0.8792431853482512
  0.4425413561243445  0.2238070354949997  0.6329490098619317
  0.2093988181239936  0.4396118763705559  0.3675852154493668
  0.1091533321324647  0.5576980059305967  0.1262860053330925
  0.8876752261361389  0.4421873489904513  0.8793207165082606
  0.7839288468486814  0.5561150544133824  0.6316112304763095
  0.5633754961311723  0.4396123781754540  0.3675915371075078
  0.4447418704111712  0.5563186527168185  0.1325949611040826
  0.2217086215065649  0.4430532044985753  0.8858353274660971
  0.1053476033433398  0.5561127458615474  0.6316107024670572
  0.8896189602725926  0.4460754742593949  0.3800205949983280
  0.7817051561807133  0.5576961091790125  0.1262861921266136
  0.5545081572773398  0.4430536660299182  0.8858308179427112
  0.2213996563593241  0.7778499317634839  0.3795612748252282
  0.1111787356457441  0.8891926350152630  0.1292788079422991
  0.8891943350623208  0.7789415221482585  0.8794081945403818
  0.7811015755050406  0.8935671690439904  0.6310024978467510
  0.5596005513798232  0.7860376894464167  0.3762087440204382
  0.4438110671730939  0.8906854794384387  0.1302427619549036
  0.2229110693506371  0.7789415244083244  0.8794045561185584
  0.1103222986342942  0.8874827750297740  0.6291968752006269
  0.8896132402210952  0.7778502225050090  0.3795583246570615
  0.7800375192465339  0.8906868775350176  0.1302423669695685
  0.5571832936723951  0.7812034817658713  0.8849948555473759
  0.4456303873531482  0.8935691332249291  0.6310013503959411
  0.4363759186451546  0.5395946398592741  0.6118720892303458
  0.1090579782284280  0.2178609324937639  0.3259314652584422
  0.2214943465641355  0.1098248990779496  0.0775211837931522
  0.7776557474334780  0.2221499699777709  0.8277094467833308
  0.8916903836341632  0.1123116290778015  0.5817142226692482
  0.4419664956556275  0.2178636869214259  0.3259318401620135
  0.5571337511408885  0.1112285811630755  0.0789735119856161
  0.1097111732782565  0.2222239146528935  0.8338905335852047
  0.2200824112585096  0.1070014044147811  0.5789587148085076
  0.7777844463453150  0.2224041438287472  0.3323645763155767
  0.8872577943097610  0.1112284158829553  0.0789700875795347
  0.4456759654600404  0.2222227507140246  0.8338896050805431
  0.5537846062186347  0.1123121814385968  0.5817098639214109
  0.1082462284361014  0.5587258885949709  0.3237935616446634
  0.2217446226023725  0.4443261441858652  0.0865012803417002
  0.7765605687654187  0.5551270750178361  0.8322068923606238
  0.8893723337169419  0.4455832836072773  0.5800004673359567
  0.4435024326113748  0.5538409757538432  0.3413790207658849
  0.5557446998579536  0.4443265070377791  0.0864962395941689
  0.1117299444563216  0.5551252629973575  0.8322068522582384
  0.1904455373196896  0.4339604278046494  0.5654342028294295
  0.7836397055375315  0.5587241171102733  0.3237942992492364
  0.8878174689795202  0.4424721090190573  0.0776835159990696
  0.4463081065639471  0.5594550696680471  0.8427503624054253
  0.5766758355569408  0.4339621685900710  0.5654403595787016
  0.1108014654830072  0.8884386373407196  0.3288893689362595
  0.2227564738996151  0.7795188187426376  0.0782685525624345
  0.7773234952846479  0.8889986280223283  0.8311707088765914
  0.8879290176920520  0.7771603666401319  0.5803281436301972
  0.4428868453218158  0.8902089193884208  0.3291953115529722
  0.5561309296890400  0.7790987247892076  0.0863084315629052
  0.1107753533522384  0.8883883070216640  0.8287085782050596
  0.2223943836031879  0.7771598519393166  0.5803310082987920
  0.7804851935022157  0.8902103451510115  0.3291950155368468
  0.8899259340062571  0.7795186426263996  0.0782719826767888
  0.4448401049653725  0.8890003876480250  0.8311697697296481
  0.5653992245919071  0.7976349032814554  0.5763489834913713
 
             NaN             NaN             NaN
             NaN             NaN             NaN
             NaN             NaN             NaN
             NaN             NaN             NaN
             NaN             NaN             NaN
             NaN             NaN             NaN
             NaN             NaN             NaN
             NaN             NaN             NaN
             NaN             NaN             NaN
             NaN             NaN             NaN
             NaN             NaN             NaN
             NaN             NaN             NaN
             NaN             NaN             NaN
             NaN             NaN             NaN
             NaN             NaN             NaN
             NaN             NaN             NaN
             NaN             NaN             NaN
             NaN             NaN             NaN
             NaN             NaN             NaN
             NaN             NaN             NaN
             NaN             NaN             NaN
             NaN             NaN             NaN
             NaN             NaN             NaN
             NaN             NaN             NaN
             NaN             NaN             NaN
             NaN             NaN             NaN
             NaN             NaN             NaN
             NaN             NaN             NaN
             NaN             NaN             NaN
             NaN             NaN             NaN
             NaN             NaN             NaN
             NaN             NaN             NaN
             NaN             NaN             NaN
             NaN             NaN             NaN
             NaN             NaN             NaN
             NaN             NaN             NaN
             NaN             NaN             NaN
             NaN             NaN             NaN
             NaN             NaN             NaN
             NaN             NaN             NaN
             NaN             NaN             NaN
             NaN             NaN             NaN
             NaN             NaN             NaN
             NaN             NaN             NaN
             NaN             NaN             NaN
             NaN             NaN             NaN
             NaN             NaN             NaN
             NaN             NaN             NaN
             NaN             NaN             NaN
             NaN             NaN             NaN
             NaN             NaN             NaN
             NaN             NaN             NaN
             NaN             NaN             NaN
             NaN             NaN             NaN
             NaN             NaN             NaN
             NaN             NaN             NaN
             NaN             NaN             NaN
             NaN             NaN             NaN
             NaN             NaN             NaN
             NaN             NaN             NaN
             NaN             NaN             NaN
             NaN             NaN             NaN
             NaN             NaN             NaN
             NaN             NaN             NaN
             NaN             NaN             NaN
             NaN             NaN             NaN
             NaN             NaN             NaN
             NaN             NaN             NaN
             NaN             NaN             NaN
             NaN             NaN             NaN
             NaN             NaN             NaN
             NaN             NaN             NaN
