Al   Hf   N                             
   1.00000000000000     
     9.4961922441353117   -0.0000060418312541    0.0000231791669484
    -4.7480948059643966    8.2211935627480841    0.0003969408775352
    -0.0000170348012860   -0.0077806506626503    9.9255563792441421
   Al   Hf   N 
    35     1    36
Direct
  0.2220437091267868  0.1109248788050508  0.3260720004343014
  0.1092944253412824  0.2193348567909723  0.0775047361072225
  0.8899420702986021  0.1113867683377165  0.8236468394398457
  0.7774943359540387  0.2218254195237037  0.5769145988122517
  0.5567779934618358  0.1113355774432918  0.3252148671899420
  0.4432030983463235  0.2193342417621835  0.0775048341552562
  0.2214359502837766  0.1097089344001390  0.8270321850565736
  0.1145069717739915  0.2229027393113938  0.5728113391582781
  0.8877204425209300  0.1113356929848095  0.3252144071922487
  0.7775968067347208  0.2220310642752494  0.0743950047878528
  0.5546075438638667  0.1113866219855097  0.8236460787979993
  0.4415587373269219  0.2229029895190138  0.5728111580962505
  0.2215306538711985  0.4431144967210656  0.3207043181817752
  0.1095824639252143  0.5571835005491579  0.0780837348441636
  0.8892201510766853  0.4452771189626930  0.8257555967775261
  0.7836800776491231  0.5557232201176774  0.5755494503641927
  0.5547463312282730  0.4431142539227579  0.3207036261538221
  0.4447245063621494  0.5562865244637649  0.0723342418762272
  0.2111335185079497  0.4400846339688371  0.8355610163371097
  0.1052067257102820  0.5557237361858753  0.5755491992526416
  0.8880759945030832  0.4429893328689900  0.3265447547159610
  0.7807642256034342  0.5571837524899195  0.0780838706695235
  0.5621142157021239  0.4400843862297066  0.8355621853728792
  0.2226215481076750  0.7784544447891477  0.3264218454804464
  0.1109091094616943  0.8886558992554967  0.0763405132431600
  0.8894504047497023  0.7779385005447921  0.8259754092815044
  0.7817556421359555  0.8942900029371046  0.5744602770897629
  0.5572945419010722  0.7814264341044748  0.3204493982659642
  0.4438285575403853  0.8901680358482693  0.0750797539755013
  0.2216510227741821  0.7779385749017180  0.8259757701560986
  0.1107003260860822  0.8882376687178848  0.5767681348494449
  0.8889952825504324  0.7784543580328744  0.3264225346523233
  0.7795022126867437  0.8901678343202448  0.0750797899572788
  0.5593729934419969  0.7855831250965508  0.8280549547005904
  0.4456968455741048  0.8942895303887610  0.5744599998944437
  0.4367432001394604  0.5403217454471942  0.5888378318306522
  0.1094850680298123  0.2217196996146242  0.3787456070314192
  0.2215869031928861  0.1100113231128077  0.1338163310008724
  0.7777571622372221  0.2223517107588151  0.8810348401563886
  0.8917080326366786  0.1125964198828839  0.6312318597135231
  0.4453972755635434  0.2217196803351342  0.3787453058225907
  0.5567543793599370  0.1110547894048892  0.1327241250985125
  0.1092428256679980  0.2186729403883803  0.8862369804340346
  0.2201283415933872  0.1070938775244628  0.6352366855845233
  0.7776375698224314  0.2221121366123384  0.3836914686149484
  0.8874632786387338  0.1110549179205762  0.1327236357657569
  0.4425929078433199  0.2186722878126162  0.8862371571357812
  0.5540511694905206  0.1125961989922786  0.6312310765908649
  0.1117429362573503  0.5550610986541216  0.3820862317722131
  0.2219490089223868  0.4445771038791833  0.1276282510888151
  0.7825954848021510  0.5581369957447890  0.8873108585907019
  0.8888969388027661  0.4446303674595953  0.6330185155331947
  0.4463932112671856  0.5596234015065065  0.3692144774472368
  0.5557907154233490  0.4445769497122072  0.1276275035952565
  0.1087048057379789  0.5581367184011086  0.8873106262473627
  0.1917868704016215  0.4336868487168744  0.6464351073685393
  0.7764803795995832  0.5550606820023702  0.3820863858757804
  0.8882359024823501  0.4433090292838742  0.1346382417790011
  0.4439040532362171  0.5546451350521053  0.8721881226106589
  0.5750635386139038  0.4336862128360792  0.6464363742476209
  0.1109111828906180  0.8886597028821654  0.3838958760267275
  0.2225483295162078  0.7788078301534256  0.1341411728169462
  0.7800336244857817  0.8900266783360991  0.8831178924540168
  0.8879243579077709  0.7773392894038054  0.6323153132894248
  0.4449142891092706  0.8892101404187898  0.3813922322252949
  0.5560563250600410  0.7789500274871983  0.1270693993082332
  0.1106446383195632  0.8881266643803016  0.8837993857155553
  0.2225776909262223  0.7773394438720800  0.6323156685750178
  0.7774585148570807  0.8892105156965826  0.3813924652517144
  0.8894219470213542  0.7788078041812199  0.1341418132459609
  0.4431561354203737  0.8900268338540513  0.8831178561754811
  0.5657209742663341  0.7982792295775738  0.6360915676572603
 
             NaN             NaN             NaN
             NaN             NaN             NaN
             NaN             NaN             NaN
             NaN             NaN             NaN
             NaN             NaN             NaN
             NaN             NaN             NaN
             NaN             NaN             NaN
             NaN             NaN             NaN
             NaN             NaN             NaN
             NaN             NaN             NaN
             NaN             NaN             NaN
             NaN             NaN             NaN
             NaN             NaN             NaN
             NaN             NaN             NaN
             NaN             NaN             NaN
             NaN             NaN             NaN
             NaN             NaN             NaN
             NaN             NaN             NaN
             NaN             NaN             NaN
             NaN             NaN             NaN
             NaN             NaN             NaN
             NaN             NaN             NaN
             NaN             NaN             NaN
             NaN             NaN             NaN
             NaN             NaN             NaN
             NaN             NaN             NaN
             NaN             NaN             NaN
             NaN             NaN             NaN
             NaN             NaN             NaN
             NaN             NaN             NaN
             NaN             NaN             NaN
             NaN             NaN             NaN
             NaN             NaN             NaN
             NaN             NaN             NaN
             NaN             NaN             NaN
             NaN             NaN             NaN
             NaN             NaN             NaN
             NaN             NaN             NaN
             NaN             NaN             NaN
             NaN             NaN             NaN
             NaN             NaN             NaN
             NaN             NaN             NaN
             NaN             NaN             NaN
             NaN             NaN             NaN
             NaN             NaN             NaN
             NaN             NaN             NaN
             NaN             NaN             NaN
             NaN             NaN             NaN
             NaN             NaN             NaN
             NaN             NaN             NaN
             NaN             NaN             NaN
             NaN             NaN             NaN
             NaN             NaN             NaN
             NaN             NaN             NaN
             NaN             NaN             NaN
             NaN             NaN             NaN
             NaN             NaN             NaN
             NaN             NaN             NaN
             NaN             NaN             NaN
             NaN             NaN             NaN
             NaN             NaN             NaN
             NaN             NaN             NaN
             NaN             NaN             NaN
             NaN             NaN             NaN
             NaN             NaN             NaN
             NaN             NaN             NaN
             NaN             NaN             NaN
             NaN             NaN             NaN
             NaN             NaN             NaN
             NaN             NaN             NaN
             NaN             NaN             NaN
             NaN             NaN             NaN
