Al   Hf   N                             
   1.00000000000000     
     9.7253262751868839   -0.0000041613083820    0.0000291033147572
    -4.8626530587330485    8.4128086915539715   -0.0002345745075020
    -0.0000103388975295    0.0069067259575092    9.2779851521243781
   Al   Hf   N 
    35     1    36
Direct
  0.2213509019850264  0.1095388939424069  0.3776321301616079
  0.1085748910804654  0.2174794918492893  0.1241023882821608
  0.8874260020631226  0.1115648860519087  0.8749301165005434
  0.7778772580045796  0.2225944678085554  0.6238344473513919
  0.5541175309264261  0.1112358467034866  0.3797341972716524
  0.4420686198304296  0.2174840166584602  0.1241016911349959
  0.2221590525265782  0.1111545524532289  0.8738984828984044
  0.1152011565718070  0.2245536630628351  0.6293485634324298
  0.8902811992878554  0.1112351780773224  0.3797415862924609
  0.7772760432332646  0.2213861351358872  0.1289051193487225
  0.5573019782689812  0.1115646170040279  0.8749363156132617
  0.4425156986964325  0.2245506346903596  0.6293478794076321
  0.2094580904363781  0.4398620171838985  0.3628786025677044
  0.1089209137273173  0.5579176812505864  0.1223275985286492
  0.8874066663897509  0.4416499363352173  0.8765163195076298
  0.7845874246212858  0.5567240172914723  0.6294743700302377
  0.5635661924776656  0.4398627440371357  0.3628886943953873
  0.4447060655715944  0.5562458308227605  0.1270170663767090
  0.2205807315991493  0.4423667791333017  0.8836147441592601
  0.1052978159215883  0.5567206289165298  0.6294739479662326
  0.8898243386654627  0.4464864499954118  0.3765637634189289
  0.7821557875325880  0.5579146211435102  0.1223277153118829
  0.5549499058777059  0.4423673551360849  0.8836065029891103
  0.2212140823612145  0.7777388860510612  0.3759662685641985
  0.1113843749370531  0.8896029190407901  0.1258813936736374
  0.8893487728546887  0.7792860591630770  0.8765550027793765
  0.7808451805793624  0.8930417660288086  0.6272766111782673
  0.5593410724508487  0.7855182792681177  0.3713020520502184
  0.4438484328078047  0.8911019249593011  0.1268715399524183
  0.2231015226626596  0.7792860747529318  0.8765488972515456
  0.1098596286386666  0.8865582620077745  0.6263725912017009
  0.8896876283771746  0.7777392747227054  0.3759611136449124
  0.7804167651473790  0.8911043621032704  0.1268706920319431
  0.5574127594525748  0.7816626243164180  0.8817854283058963
  0.4453625739563236  0.8930449482344329  0.6272744540975310
  0.4363300982684990  0.5395051229174328  0.6087784333610102
  0.1091722243642224  0.2177189692761772  0.3293983435530379
  0.2215010626463183  0.1098383440985629  0.0800193695455107
  0.7776761318237106  0.2221916835783944  0.8303487882438390
  0.8917645656166755  0.1122319467521393  0.5854531484213510
  0.4417104092340338  0.2177230863139599  0.3293984410430753
  0.5572705035415311  0.1113651497284067  0.0817183677784570
  0.1097881358085644  0.2223833848930497  0.8371353000338360
  0.2193984469196195  0.1056332878534079  0.5835421819266173
  0.7777615235436315  0.2223571153379069  0.3363071982169359
  0.8872576554619016  0.1113650456048205  0.0817123547513106
  0.4457584548278462  0.2223810405906121  0.8371342844006051
  0.5536309441257927  0.1122327715946767  0.5854456752843120
  0.1081526263765582  0.5588692894999312  0.3261871066264490
  0.2212638961857465  0.4439403897515533  0.0907584407708839
  0.7768930513189360  0.5553039043141936  0.8369276339307845
  0.8896130918303413  0.4460647437339276  0.5835341085513690
  0.4433806619951710  0.5535965166415338  0.3429903985186940
  0.5558397361944927  0.4439409195300854  0.0907497106442889
  0.1115747087386438  0.5553010768484157  0.8369277045682750
  0.1907312637028937  0.4353430832856091  0.5691775207607535
  0.7838752856753644  0.5588664557989276  0.3261880815480467
  0.8875376590971200  0.4419126697203382  0.0810526309546944
  0.4460059194290480  0.5588519864279107  0.8474024784035592
  0.5777722521252286  0.4353453769278346  0.5691875267794444
  0.1108767116151199  0.8885883480142311  0.3320989018465355
  0.2229805246700778  0.7799198332411592  0.0816790094931719
  0.7772096332651230  0.8887864401588104  0.8343775812813945
  0.8879919453564113  0.7770455498024802  0.5836569759675498
  0.4428456420980069  0.8903169123287071  0.3325366925819324
  0.5563176783763950  0.7794722578992506  0.0901333291312341
  0.1106018000755213  0.8880418277861324  0.8323749757473848
  0.2222165576291459  0.7770447943272671  0.5836619220987416
  0.7806345019051122  0.8903192971305600  0.3325359923373981
  0.8901030039439917  0.7799194825928737  0.0816847344121570
  0.4447427732836005  0.8887891733005304  0.8343758778999231
  0.5645911230689791  0.7960183912079231  0.5795715448510705
 
             NaN             NaN             NaN
             NaN             NaN             NaN
             NaN             NaN             NaN
             NaN             NaN             NaN
             NaN             NaN             NaN
             NaN             NaN             NaN
             NaN             NaN             NaN
             NaN             NaN             NaN
             NaN             NaN             NaN
             NaN             NaN             NaN
             NaN             NaN             NaN
             NaN             NaN             NaN
             NaN             NaN             NaN
             NaN             NaN             NaN
             NaN             NaN             NaN
             NaN             NaN             NaN
             NaN             NaN             NaN
             NaN             NaN             NaN
             NaN             NaN             NaN
             NaN             NaN             NaN
             NaN             NaN             NaN
             NaN             NaN             NaN
             NaN             NaN             NaN
             NaN             NaN             NaN
             NaN             NaN             NaN
             NaN             NaN             NaN
             NaN             NaN             NaN
             NaN             NaN             NaN
             NaN             NaN             NaN
             NaN             NaN             NaN
             NaN             NaN             NaN
             NaN             NaN             NaN
             NaN             NaN             NaN
             NaN             NaN             NaN
             NaN             NaN             NaN
             NaN             NaN             NaN
             NaN             NaN             NaN
             NaN             NaN             NaN
             NaN             NaN             NaN
             NaN             NaN             NaN
             NaN             NaN             NaN
             NaN             NaN             NaN
             NaN             NaN             NaN
             NaN             NaN             NaN
             NaN             NaN             NaN
             NaN             NaN             NaN
             NaN             NaN             NaN
             NaN             NaN             NaN
             NaN             NaN             NaN
             NaN             NaN             NaN
             NaN             NaN             NaN
             NaN             NaN             NaN
             NaN             NaN             NaN
             NaN             NaN             NaN
             NaN             NaN             NaN
             NaN             NaN             NaN
             NaN             NaN             NaN
             NaN             NaN             NaN
             NaN             NaN             NaN
             NaN             NaN             NaN
             NaN             NaN             NaN
             NaN             NaN             NaN
             NaN             NaN             NaN
             NaN             NaN             NaN
             NaN             NaN             NaN
             NaN             NaN             NaN
             NaN             NaN             NaN
             NaN             NaN             NaN
             NaN             NaN             NaN
             NaN             NaN             NaN
             NaN             NaN             NaN
             NaN             NaN             NaN
