Al   Hf   N                             
   1.00000000000000     
     9.4355412995452355   -0.0000071583917093    0.0000196617041869
    -4.7177645112410600    8.1731947574131603    0.0007719031374011
    -0.0000204691128588    0.0009711453435920   10.0792994211053983
   Al   Hf   N 
    35     1    36
Direct
  0.2219750665981621  0.1107126887854051  0.2962921520871902
  0.1094302179566498  0.2196456856463698  0.0474682252241863
  0.8901341829187928  0.1118157258127539  0.7944505427288178
  0.7775640214907469  0.2218909493871664  0.5472100950882748
  0.5564642753296596  0.1109884407882546  0.2957432918343770
  0.4434527980913998  0.2196456709688022  0.0474681761147835
  0.2213798038131500  0.1095226386007226  0.7982404554844607
  0.1159946081884513  0.2232777220003328  0.5439275422403966
  0.8877615811271227  0.1109884326565549  0.2957432988784561
  0.7776388060527495  0.2220402771799996  0.0454423381238129
  0.5549185274392769  0.1118156919622422  0.7944505414224565
  0.4405201808730794  0.2232776758969734  0.5439275292608556
  0.2199561505333705  0.4420905724650481  0.2906451693614969
  0.1096855028608346  0.5568810602795651  0.0479930332520482
  0.8890951515574912  0.4449532342833038  0.7967633606323687
  0.7836118223990596  0.5557298954726804  0.5471981981816896
  0.5553720339047032  0.4420906017819135  0.2906451127765877
  0.4447586530395782  0.5562798860807945  0.0447086101957197
  0.2138217613013467  0.4413708938168028  0.8054198344846668
  0.1053552201708712  0.5557298655598046  0.5471982543241367
  0.8882158153879729  0.4431940691798175  0.2973571725639630
  0.7804329567853543  0.5568810466265290  0.0479929705842821
  0.5607861741991798  0.4413708720275764  0.8054197725473315
  0.2225589853813048  0.7780507583010063  0.2972990018911688
  0.1107763179299397  0.8883152981332358  0.0473738204185636
  0.8894980256153957  0.7779945304582085  0.7968325498563118
  0.7822993808090430  0.8947750473733009  0.5458269615575446
  0.5578096599549696  0.7823818292596485  0.2901024915600701
  0.4438326576271052  0.8901836958277087  0.0453685721439356
  0.2217335129350175  0.7779945228320102  0.7968325756148928
  0.1107164483825258  0.8881957896442927  0.5475370821123775
  0.8887292525288828  0.7780507805221148  0.2972989649097357
  0.7795883734496414  0.8901837066673508  0.0453685382708642
  0.5588032052999594  0.7843694048022769  0.7991479095841285
  0.4457127534424714  0.8947750239094603  0.5458269650221155
  0.4375527338158633  0.5418683445834418  0.5523480869688271
  0.1092513170073914  0.2211944119415605  0.3518604215450196
  0.2216476114024744  0.1100578718960392  0.1062972631314096
  0.7777872553724805  0.2223375138457087  0.8544680896668311
  0.8922766687491190  0.1133054208981363  0.6042415779777457
  0.4451805296475371  0.2211944493118096  0.3518604235387812
  0.5564658285205439  0.1108677262623203  0.1055194542872897
  0.1097373642595016  0.2194639460800119  0.8586389116989679
  0.2196613724399228  0.1060857068169412  0.6091479709557106
  0.7775960325349516  0.2219546589158625  0.3562204783664882
  0.8876392288617012  0.1108677234211868  0.1055194656804730
  0.4429635768420894  0.2194639345767513  0.8586388618707161
  0.5542658005976335  0.1133054030611049  0.6042415710889770
  0.1117287105467852  0.5548016321138078  0.3559236667506767
  0.2211961765211612  0.4440906007392798  0.1009186826205095
  0.7819084125283240  0.5578095732812614  0.8595373545481948
  0.8887074510726052  0.4441778026504721  0.6063859206383526
  0.4462184561300830  0.5591992868038673  0.3380564262303949
  0.5561318517258798  0.4440905762705967  0.1009186312069090
  0.1091382212490117  0.5578095798901543  0.8595374184689462
  0.1949635582730949  0.4354220546157919  0.6189467908859925
  0.7763104939276317  0.5548016586080848  0.3559236111529955
  0.8884042834940615  0.4435711542696126  0.1075209172504117
  0.4443860501993271  0.5555350151827199  0.8489501784734514
  0.5736955981712057  0.4354220643805107  0.6189466988612082
  0.1108433503875759  0.8884492552909649  0.3568088253122141
  0.2225548689057888  0.7782937366412810  0.1071764474010735
  0.7800889505940845  0.8902016372196186  0.8558302452815667
  0.8880568612709041  0.7774119355587104  0.6055031024541009
  0.4449510490431905  0.8889136745603068  0.3548979654139544
  0.5564659968432366  0.7796946297833429  0.1001399499644577
  0.1105535705744600  0.8878701244805285  0.8572785561730285
  0.2225921424429131  0.7774119236301260  0.6055031273258820
  0.7772000784801705  0.8889136867599987  0.3548979671446517
  0.8889762133235877  0.7782937309087004  0.1071764069071719
  0.4433496948997657  0.8902016126116550  0.8558302766353094
  0.5652528840133613  0.7972687005236594  0.6097215467212678
 
             NaN             NaN             NaN
             NaN             NaN             NaN
             NaN             NaN             NaN
             NaN             NaN             NaN
             NaN             NaN             NaN
             NaN             NaN             NaN
             NaN             NaN             NaN
             NaN             NaN             NaN
             NaN             NaN             NaN
             NaN             NaN             NaN
             NaN             NaN             NaN
             NaN             NaN             NaN
             NaN             NaN             NaN
             NaN             NaN             NaN
             NaN             NaN             NaN
             NaN             NaN             NaN
             NaN             NaN             NaN
             NaN             NaN             NaN
             NaN             NaN             NaN
             NaN             NaN             NaN
             NaN             NaN             NaN
             NaN             NaN             NaN
             NaN             NaN             NaN
             NaN             NaN             NaN
             NaN             NaN             NaN
             NaN             NaN             NaN
             NaN             NaN             NaN
             NaN             NaN             NaN
             NaN             NaN             NaN
             NaN             NaN             NaN
             NaN             NaN             NaN
             NaN             NaN             NaN
             NaN             NaN             NaN
             NaN             NaN             NaN
             NaN             NaN             NaN
             NaN             NaN             NaN
             NaN             NaN             NaN
             NaN             NaN             NaN
             NaN             NaN             NaN
             NaN             NaN             NaN
             NaN             NaN             NaN
             NaN             NaN             NaN
             NaN             NaN             NaN
             NaN             NaN             NaN
             NaN             NaN             NaN
             NaN             NaN             NaN
             NaN             NaN             NaN
             NaN             NaN             NaN
             NaN             NaN             NaN
             NaN             NaN             NaN
             NaN             NaN             NaN
             NaN             NaN             NaN
             NaN             NaN             NaN
             NaN             NaN             NaN
             NaN             NaN             NaN
             NaN             NaN             NaN
             NaN             NaN             NaN
             NaN             NaN             NaN
             NaN             NaN             NaN
             NaN             NaN             NaN
             NaN             NaN             NaN
             NaN             NaN             NaN
             NaN             NaN             NaN
             NaN             NaN             NaN
             NaN             NaN             NaN
             NaN             NaN             NaN
             NaN             NaN             NaN
             NaN             NaN             NaN
             NaN             NaN             NaN
             NaN             NaN             NaN
             NaN             NaN             NaN
             NaN             NaN             NaN
