Al   Hf   N                             
   1.00000000000000     
     9.8340794686546165   -0.0000043963737410    0.0000283627962811
    -4.9170290960264422    8.5042824475425665   -0.0001556350843723
    -0.0000043281534338    0.0050525440676647    8.9480082316037208
   Al   Hf   N 
    35     1    36
Direct
  0.2214291679557974  0.1096953598151131  0.3735009022744720
  0.1086214414060009  0.2172489871185874  0.1188917875751798
  0.8876793708028856  0.1117331730807649  0.8684589485840277
  0.7780203762010061  0.2228808787463663  0.6182067782203191
  0.5542417507654278  0.1112625825136533  0.3746315941612224
  0.4417916227126994  0.2172541822118603  0.1188892906939429
  0.2221797804928372  0.1111962432416789  0.8675789768941939
  0.1158392821308283  0.2248676084049777  0.6230903701587991
  0.8901835345848212  0.1112615416689451  0.3746412735242259
  0.7771335723615564  0.2211006391012873  0.1235619087944286
  0.5572169964408360  0.1117325865564638  0.8684658478708087
  0.4421915386695119  0.2248642299225168  0.6230891809383223
  0.2103133129173784  0.4402987171018609  0.3570719109237146
  0.1088654135670737  0.5579475883375764  0.1167743561743322
  0.8872666930618607  0.4413696750466158  0.8721410242776670
  0.7858381644854404  0.5576963652408793  0.6252818970995975
  0.5631469901780832  0.4402998226730901  0.3570817885621196
  0.4446006907829769  0.5560348200548333  0.1184925741134322
  0.2185952476905157  0.4414720640598802  0.8792846579972249
  0.1050197117867668  0.5576926010178482  0.6252820867551137
  0.8898480681458025  0.4465340528458199  0.3705930592928510
  0.7822405778182002  0.5579441315817135  0.1167738991838192
  0.5560411323879961  0.4414727729821308  0.8792720681370696
  0.2211447386621828  0.7777077481388659  0.3698893717299683
  0.1115846735810209  0.8900031400992532  0.1203145650114763
  0.8895130255789709  0.7795551599709896  0.8720313851597865
  0.7807496303904529  0.8925421274064220  0.6212478756057251
  0.5588559205357200  0.7845477878884637  0.3641771409383665
  0.4440045017455247  0.8913692520559948  0.1213005382449239
  0.2232065035696351  0.7795551254870148  0.8720239795067855
  0.1093875479511723  0.8856143631509141  0.6216767151720930
  0.8897257795504530  0.7777082188307460  0.3698830322506126
  0.7805281429861566  0.8913720191379753  0.1212996374213517
  0.5577650892701342  0.7823674017572415  0.8759190005771487
  0.4449588398030002  0.8925456497874222  0.6212446125778754
  0.4363322284598965  0.5395103958091525  0.6060234614631241
  0.1094025376599248  0.2180286328615892  0.3352077530215212
  0.2215918057212320  0.1100201831810637  0.0847735979054605
  0.7776865035469953  0.2222125357641218  0.8352753183100674
  0.8916628060893927  0.1121404436629660  0.5909880541509125
  0.4417897794054113  0.2180333227812028  0.3352078902806639
  0.5572313650230569  0.1115242300616615  0.0866708358062880
  0.1099484696284492  0.2223372328621167  0.8420343992841808
  0.2184850329543622  0.1038065228505047  0.5902550852668966
  0.7777120960643700  0.2222576539148520  0.3419836333202682
  0.8874560999201577  0.1115241757708034  0.0866630744953554
  0.4455517044522423  0.2223339688764057  0.8420342511072505
  0.5536414149368909  0.1121414717259910  0.5909793023820313
  0.1083116161655511  0.5586754975932351  0.3307013953988402
  0.2206779369105973  0.4435265740595540  0.0960241735956942
  0.7777044362929431  0.5557197637363700  0.8436113487222698
  0.8897133704184270  0.4462648624329404  0.5888181230804790
  0.4434502806674843  0.5537355115144109  0.3440441246704964
  0.5560119161729986  0.4435273804545261  0.0960140212160283
  0.1111796882650609  0.5557163059706411  0.8436112626102883
  0.1915822000576526  0.4371651052210765  0.5767119141883867
  0.7835217657738056  0.5586722214018423  0.3307030072932946
  0.8873389429442966  0.4415153266411735  0.0866290062055981
  0.4454212296211395  0.5576836640322327  0.8542171345771976
  0.5787432677315181  0.4371677063188173  0.5767259230422468
  0.1109424366988279  0.8887195210066920  0.3371462363007609
  0.2232324388766713  0.7801916535312259  0.0873294198283432
  0.7773418374546495  0.8887197249459931  0.8396479621625517
  0.8881903913386751  0.7770973424251295  0.5888518322427885
  0.4430188170772595  0.8902735013941339  0.3379959277675724
  0.5564764303908731  0.7797897484164054  0.0952964032428412
  0.1104093505951482  0.8876571126389621  0.8383681736263568
  0.2220697568774810  0.7770963310037828  0.5888579135228014
  0.7804179264631657  0.8902762110955322  0.3379948184565009
  0.8901229592841631  0.7801913023761102  0.0873364858872847
  0.4445441080513461  0.8887227023616120  0.8396459533855776
  0.5635554862922447  0.7939470373141688  0.5855869195566328
 
             NaN             NaN             NaN
             NaN             NaN             NaN
             NaN             NaN             NaN
             NaN             NaN             NaN
             NaN             NaN             NaN
             NaN             NaN             NaN
             NaN             NaN             NaN
             NaN             NaN             NaN
             NaN             NaN             NaN
             NaN             NaN             NaN
             NaN             NaN             NaN
             NaN             NaN             NaN
             NaN             NaN             NaN
             NaN             NaN             NaN
             NaN             NaN             NaN
             NaN             NaN             NaN
             NaN             NaN             NaN
             NaN             NaN             NaN
             NaN             NaN             NaN
             NaN             NaN             NaN
             NaN             NaN             NaN
             NaN             NaN             NaN
             NaN             NaN             NaN
             NaN             NaN             NaN
             NaN             NaN             NaN
             NaN             NaN             NaN
             NaN             NaN             NaN
             NaN             NaN             NaN
             NaN             NaN             NaN
             NaN             NaN             NaN
             NaN             NaN             NaN
             NaN             NaN             NaN
             NaN             NaN             NaN
             NaN             NaN             NaN
             NaN             NaN             NaN
             NaN             NaN             NaN
             NaN             NaN             NaN
             NaN             NaN             NaN
             NaN             NaN             NaN
             NaN             NaN             NaN
             NaN             NaN             NaN
             NaN             NaN             NaN
             NaN             NaN             NaN
             NaN             NaN             NaN
             NaN             NaN             NaN
             NaN             NaN             NaN
             NaN             NaN             NaN
             NaN             NaN             NaN
             NaN             NaN             NaN
             NaN             NaN             NaN
             NaN             NaN             NaN
             NaN             NaN             NaN
             NaN             NaN             NaN
             NaN             NaN             NaN
             NaN             NaN             NaN
             NaN             NaN             NaN
             NaN             NaN             NaN
             NaN             NaN             NaN
             NaN             NaN             NaN
             NaN             NaN             NaN
             NaN             NaN             NaN
             NaN             NaN             NaN
             NaN             NaN             NaN
             NaN             NaN             NaN
             NaN             NaN             NaN
             NaN             NaN             NaN
             NaN             NaN             NaN
             NaN             NaN             NaN
             NaN             NaN             NaN
             NaN             NaN             NaN
             NaN             NaN             NaN
             NaN             NaN             NaN
