Al   Hf   N                             
   1.00000000000000     
     9.4356243838964016   -0.0000033385796255    0.0000316951294235
    -4.7178091676071894    8.1732453605377220   -0.0005108624884557
    -0.0000330993666811   -0.0009194110156019   10.0791138170942762
   Al   Hf   N 
    35     1    36
Direct
  0.2213030986960689  0.1094728486805963  0.3936772181587216
  0.1093565276949349  0.2196024762056368  0.1444427196810096
  0.8876884794738871  0.1109490396907020  0.8961691681493349
  0.7774861316800354  0.2218389451860290  0.6447009796999836
  0.5548396585483388  0.1117597296221717  0.3974619580403171
  0.4433793449948809  0.2196024996282162  0.1444427149885570
  0.2219040664838445  0.1106747458729700  0.8956188529310083
  0.1159065754195936  0.2232202373706897  0.6479904988680971
  0.8900534154761601  0.1117597241697652  0.3974619485176021
  0.7775653510916172  0.2219973118180008  0.1464710715322184
  0.5563939442183781  0.1109490826778199  0.8961691535124388
  0.4404469482479811  0.2232202528482077  0.6479905032771640
  0.2137290410783095  0.4413105786854032  0.3864966518795470
  0.1096127008337078  0.5568392893145813  0.1439201416543128
  0.8881433427180596  0.4431533163121273  0.8945581462340257
  0.7835360262868534  0.5556786463098859  0.6447190791347452
  0.5607148328557301  0.4413105731025198  0.3864966592667827
  0.4446842445654511  0.5562351663273191  0.1472216371356225
  0.2198921780000873  0.4420569710961999  0.9012657918891875
  0.1052758727678977  0.5556786073694653  0.6447190733214043
  0.8890179478203208  0.4449025726448284  0.3951506629925134
  0.7803599119539300  0.5568392685216494  0.1439201519829822
  0.5552981637608809  0.4420570313377894  0.9012657887216022
  0.2216568867508357  0.7779432857013759  0.3950798504481838
  0.1107044867836322  0.8882755811983003  0.1445419618179216
  0.8886596847056438  0.7780122817825941  0.8946162825849839
  0.7822190295988136  0.8947195595947264  0.6460908579869482
  0.5587277266831023  0.7843221277992640  0.3927748280786503
  0.4437603132234287  0.8901382346416113  0.1465399164198331
  0.2224859995028510  0.7780122717769515  0.8946162787004397
  0.1106390944480893  0.8881448326607284  0.6443756353285224
  0.8894197592478221  0.7779432905281070  0.3950798545341527
  0.7795112710037415  0.8901381940038746  0.1465399268859642
  0.5577323466214352  0.7823313326556729  0.9018029090005655
  0.4456338351117566  0.8947195686717961  0.6460908558381320
  0.4374675366576994  0.5418018228894823  0.6395324266336857
  0.1096572728424405  0.2194100942701240  0.3332754578371748
  0.2215758728909520  0.1100183568254920  0.0856168908788604
  0.7775249408046889  0.2219165041693429  0.8356936644475397
  0.8921944103016344  0.1132486087629232  0.5876745370528980
  0.4428861763713314  0.2194101011034775  0.3332754564485327
  0.5563948528266209  0.1108271310152560  0.0863960848176930
  0.1091799879823370  0.2211582060610127  0.8400584081436335
  0.2195868665144047  0.1060404185908652  0.5827729774828896
  0.7777105376782103  0.2222877335372360  0.3374494521959264
  0.8875656370028651  0.1108270947221470  0.0863960976395290
  0.4451115934571774  0.2211582525904845  0.8400584055352880
  0.5541875014412909  0.1132486259558974  0.5876745470276532
  0.1090604873138332  0.5577608752272241  0.3323776834585530
  0.2211293909354026  0.4440533657463135  0.0909991036789037
  0.7762409436484461  0.5547641926362559  0.8359962185664784
  0.8886310608110151  0.4441288627954805  0.5855310593460885
  0.4443059645983283  0.5554786318198808  0.3429913077940867
  0.5560573170522645  0.4440533886746039  0.0909990986197968
  0.1116566056346429  0.5547641756565298  0.8359962114020760
  0.1948662696299266  0.4353588963576271  0.5729705143055668
  0.7818336993665582  0.5577608713887656  0.3323776939905798
  0.8883318188035290  0.4435302898735216  0.0843965828005580
  0.4461458375397314  0.5591583510403524  0.8538326210289213
  0.5736259153600756  0.4353589276172727  0.5729705279748813
  0.1104780793262563  0.8878227948058708  0.3346405149378242
  0.2224818728802660  0.7782550093069389  0.0847412186681069
  0.7771299074475522  0.8888749792529040  0.8370220756627731
  0.8879790216059860  0.7773611625046968  0.5864130519663107
  0.4432737707493999  0.8901488143571754  0.3360834997075202
  0.5563886683222421  0.7796439668573569  0.0917731802755597
  0.1107728815630011  0.8884123536006499  0.8351063413837494
  0.2225154626135009  0.7773611328695722  0.5864130455921739
  0.7800083895219245  0.8901488036992902  0.3360835072403745
  0.8889065244912189  0.7782549983556777  0.0847412240335217
  0.4448784553600049  0.8888750015813898  0.8370220717217549
  0.5651764428018211  0.7972195838807750  0.5822026529636091
 
             NaN             NaN             NaN
             NaN             NaN             NaN
             NaN             NaN             NaN
             NaN             NaN             NaN
             NaN             NaN             NaN
             NaN             NaN             NaN
             NaN             NaN             NaN
             NaN             NaN             NaN
             NaN             NaN             NaN
             NaN             NaN             NaN
             NaN             NaN             NaN
             NaN             NaN             NaN
             NaN             NaN             NaN
             NaN             NaN             NaN
             NaN             NaN             NaN
             NaN             NaN             NaN
             NaN             NaN             NaN
             NaN             NaN             NaN
             NaN             NaN             NaN
             NaN             NaN             NaN
             NaN             NaN             NaN
             NaN             NaN             NaN
             NaN             NaN             NaN
             NaN             NaN             NaN
             NaN             NaN             NaN
             NaN             NaN             NaN
             NaN             NaN             NaN
             NaN             NaN             NaN
             NaN             NaN             NaN
             NaN             NaN             NaN
             NaN             NaN             NaN
             NaN             NaN             NaN
             NaN             NaN             NaN
             NaN             NaN             NaN
             NaN             NaN             NaN
             NaN             NaN             NaN
             NaN             NaN             NaN
             NaN             NaN             NaN
             NaN             NaN             NaN
             NaN             NaN             NaN
             NaN             NaN             NaN
             NaN             NaN             NaN
             NaN             NaN             NaN
             NaN             NaN             NaN
             NaN             NaN             NaN
             NaN             NaN             NaN
             NaN             NaN             NaN
             NaN             NaN             NaN
             NaN             NaN             NaN
             NaN             NaN             NaN
             NaN             NaN             NaN
             NaN             NaN             NaN
             NaN             NaN             NaN
             NaN             NaN             NaN
             NaN             NaN             NaN
             NaN             NaN             NaN
             NaN             NaN             NaN
             NaN             NaN             NaN
             NaN             NaN             NaN
             NaN             NaN             NaN
             NaN             NaN             NaN
             NaN             NaN             NaN
             NaN             NaN             NaN
             NaN             NaN             NaN
             NaN             NaN             NaN
             NaN             NaN             NaN
             NaN             NaN             NaN
             NaN             NaN             NaN
             NaN             NaN             NaN
             NaN             NaN             NaN
             NaN             NaN             NaN
             NaN             NaN             NaN
