Al   Hf   N 
   1.00000000000000     
   9.4344140869442406  -0.0000072171580491   0.0000194765745679
  -4.7172109695376303   8.1722066181337691   0.0007916379931835
   0.0000192200334818   0.0009796963178504  10.0777407436158999
Al   Hf   N 
35  1  36  
Direct
  0.2219654260712645  0.1107104136600938  0.2949695711676128  
  0.1094263536983462  0.2196575981614046  0.0461411060192631  
  0.8901558650960553  0.1118221209781751  0.7931248921877199  
  0.7775713840343883  0.2218852032326950  0.5458921112023845  
  0.5564555722570361  0.1109783108800713  0.2944218049917851  
  0.4434644924668660  0.2196602089736430  0.0461491058658368  
  0.2214007535250317  0.1095294792994537  0.7969421907683625  
  0.1160132944822863  0.2232747237653143  0.5426082715567873  
  0.8877452675011668  0.1109786523143370  0.2944186540658507  
  0.7776401327150708  0.2220493224297826  0.0441202022405704  
  0.5549372097810448  0.1118248321166178  0.7931232889769149  
  0.4405181598931591  0.2232763984804933  0.5426101622634434  
  0.2199202415935275  0.4420765920086538  0.2893081488429132  
  0.1096797107879439  0.5568931044765009  0.0466734349824236  
  0.8891076241126399  0.4449523114402822  0.7954532199134334  
  0.7836172275688469  0.5557248379504571  0.5458961280193080  
  0.5553555852474261  0.4420749016010674  0.2893194939672270  
  0.4447563806273820  0.5562932071851066  0.0434079114291563  
  0.2138508490693383  0.4413844583920721  0.8041127543650433  
  0.1053569264922700  0.5557270332273276  0.5458893358061232  
  0.8881967914966609  0.4431871703572199  0.2960459952263221  
  0.7804350618714011  0.5568939757333808  0.0466808763058211  
  0.5607973768769767  0.4413847195372327  0.8041191807742223  
  0.2225428545611763  0.7780464013895099  0.2959829717119504  
  0.1107834068921818  0.8883358490293460  0.0460670242027561  
  0.8895200824303942  0.7779997321834031  0.7955241889221796  
  0.7823114203250014  0.8947680916260907  0.5445083524942405  
  0.5578007460479029  0.7823888767312326  0.2887678962085261  
  0.4438350428707665  0.8901964930076076  0.0440379730321254  
  0.2217479919560859  0.7779992029969307  0.7955235937327245  
  0.1107267370924845  0.8881957740197350  0.5462335298016612  
  0.8887200219265310  0.7780439625871054  0.2959875969847658  
  0.7795914540961633  0.8901935842812492  0.0440413943902769  
  0.5588151067884226  0.7843620136128706  0.7978209909252598  
  0.4457110583966895  0.8947687338033745  0.5445083406776163  
  0.4375557429899217  0.5418548050052365  0.5509915576642612  
  0.1092333156064669  0.2211832790626431  0.3505339940184413  
  0.2216542713696796  0.1100798363349824  0.1049744315944068  
  0.7778009070779248  0.2223348084666057  0.8531425066544074  
  0.8922899883322160  0.1133027037689871  0.6029090311462255  
  0.4451696254388224  0.2211788014577181  0.3505352154348458  
  0.5564707787540897  0.1108759109883266  0.1041979002870548  
  0.1097525003537996  0.2194705247581865  0.8573120631018298  
  0.2196707298243226  0.1060812752659075  0.6078422114454227  
  0.7775839774254223  0.2219442850328619  0.3549008740903332  
  0.8876339653177681  0.1108746375644216  0.1041944236023227  
  0.4429876953340042  0.2194707949685721  0.8573197313715113  
  0.5542729462083855  0.1133038033809513  0.6029083884666093  
  0.1117099891851296  0.5547962108018609  0.3546078743490142  
  0.2211803232330354  0.4440975881954401  0.0995871970086668  
  0.7819280108440196  0.5578182629440960  0.8582238192651346  
  0.8887098104320401  0.4441653921419686  0.6050706049752534  
  0.4461937927885060  0.5591929598133376  0.3366885602672909  
  0.5561357422037077  0.4441011318827677  0.0995964505656630  
  0.1091514667336142  0.5578164339068508  0.8582163453583789  
  0.1949798870635249  0.4354220075637798  0.6176242045852192  
  0.7762906506595257  0.5547938439239672  0.3546150949002680  
  0.8883971051516824  0.4435766857476224  0.1062077310812697  
  0.4444042663985073  0.5555465446892995  0.8476493987602822  
  0.5736963269445852  0.4354172778994396  0.6176361633534100  
  0.1108337805475728  0.8884485420529273  0.3554983256896236  
  0.2225566100629237  0.7783089614856777  0.1058595900804988  
  0.7801054787178003  0.8902069497183334  0.8544971775175014  
  0.8880687620575713  0.7774102342682667  0.6041885662431525  
  0.4449364221840852  0.8889065843466142  0.3535768091131359  
  0.5564721577597567  0.7797177654266108  0.0988098695640005  
  0.1105718112122105  0.8878765912522582  0.8559718772483649  
  0.2225991639957741  0.7774095894490216  0.6041872816151539  
  0.7771874714381966  0.8889054668410097  0.3535759504326279  
  0.8889803355032129  0.7783085273543691  0.1058641203120985  
  0.4433712162141248  0.8902102233734652  0.8544942523255088  
  0.5652551562811396  0.7972523660203166  0.6083829432206684  
