Al   Hf   N                             
   1.00000000000000     
     9.9018873987763865   -0.0000045726727603    0.0000278074074240
    -4.9509326226986339    8.5613475939005053   -0.0000964305170251
     0.0000000803576623    0.0037662835383071    8.7385829395367836
   Al   Hf   N 
    35     1    36
Direct
  0.2215251603889499  0.1098874606194613  0.3690354977856884
  0.1088455754949251  0.2175442309032576  0.1145181028098108
  0.8880298188100184  0.1117901387966782  0.8633330155652743
  0.7780474831358859  0.2229345474001576  0.6138854572056189
  0.5545766997318253  0.1113307604732938  0.3696182671256310
  0.4418627784283018  0.2175494407005090  0.1145124656175653
  0.2221550870241273  0.1111469696756942  0.8628116792293312
  0.1159437654940447  0.2246115958624344  0.6175186736674974
  0.8899166496083808  0.1113294557893383  0.3696297428472590
  0.7770686526230435  0.2209708710729998  0.1183424829703554
  0.5569236136597127  0.1117893620732389  0.8633374525550011
  0.4418307904726078  0.2246082469934976  0.6175156308898266
  0.2111337577178816  0.4405316359233424  0.3534304182186858
  0.1090131579252684  0.5578335144558721  0.1127505865647862
  0.8873901175420471  0.4416161094197051  0.8683297417615492
  0.7867731423484301  0.5583552738058444  0.6207551840929284
  0.5625584362273983  0.4405331820436515  0.3534362555837802
  0.4445011492987021  0.5558357645568179  0.1129310288018317
  0.2171064922410935  0.4410187667847296  0.8748206076750549
  0.1047440217237536  0.5583515757610868  0.6207566326666978
  0.8896300967709010  0.4460983070464977  0.3652019749370439
  0.7819788010446302  0.5578302530158865  0.1127487632804645
  0.5570772956513537  0.4410195625432820  0.8748027836762304
  0.2212792331825923  0.7778459085302529  0.3645161015088192
  0.1116353085914596  0.8901046579984921  0.1154641248530481
  0.8895627299295157  0.7795432340425421  0.8679714601942266
  0.7808242891118695  0.8923888180902040  0.6160318600929315
  0.5585427161543493  0.7839213035921162  0.3590092081469152
  0.4441837034165346  0.8913203996569905  0.1162660715452120
  0.2231450184441144  0.7795430791107236  0.8679643207677685
  0.1092389497501074  0.8853168318623474  0.6172528845399441
  0.8897293337214052  0.7778464255471178  0.3645103190293355
  0.7803002127915093  0.8913229406534384  0.1162660943916833
  0.5579714179222819  0.7827800252722525  0.8703978513558752
  0.4447305422498147  0.8923919648298835  0.6160271466232032
  0.4363321933821354  0.5395108283474741  0.6048396493789951
  0.1095898191483613  0.2185743952528227  0.3403546122594179
  0.2216923602382082  0.1102215855366637  0.0897531460637495
  0.7776669226843325  0.2221729367352623  0.8402060473906872
  0.8914691722003170  0.1121174175857362  0.5953533590378228
  0.4421483287322232  0.2185794683561042  0.3403560130378764
  0.5570428897043982  0.1115870528096892  0.0915676097708911
  0.1100200561704483  0.2220133409676777  0.8462121928706168
  0.2180304638769286  0.1028976595990301  0.5951881025463877
  0.7776842019518497  0.2222017577380626  0.3463207419343703
  0.8877075160026422  0.1115869245282184  0.0915588392250513
  0.4451558464256351  0.2220094399752384  0.8462136920172441
  0.5538121847323652  0.1121184646620748  0.5953456448034018
  0.1085783123176114  0.5583443244729551  0.3352793609325389
  0.2203362956100179  0.4433513501294399  0.0992417403458177
  0.7785231013039606  0.5561227882993265  0.8485118133953975
  0.8896077061043286  0.4460530968426468  0.5932195186588274
  0.4436270168177074  0.5540889741024628  0.3443508911437831
  0.5561784159510594  0.4433524099961019  0.0992320886380469
  0.1107647536159320  0.5561189200268757  0.8485109008012586
  0.1924010971688759  0.4381448915361474  0.5840224573164932
  0.7829232610685111  0.5583409452288137  0.3352823419799620
  0.8873538481269989  0.4415451923612324  0.0915841055037845
  0.4450185648190867  0.5568790660973235  0.8585929041386606
  0.5789040889352890  0.4381477515217611  0.5840421731356642
  0.1109111296944079  0.8886571508013859  0.3415661083308947
  0.2233414244123182  0.7801885382780469  0.0923134996072719
  0.7776557046176649  0.8888621134108448  0.8443969174087584
  0.8883982106709922  0.7772999086513863  0.5933611309124771
  0.4432596617331228  0.8900820090721027  0.3427869247250968
  0.5565162858740536  0.7798693221634139  0.0988813907545563
  0.1103653158829445  0.8875686941650258  0.8435869806028364
  0.2220643654301782  0.7772986152546153  0.5933668627978150
  0.7799855385655903  0.8900846087558563  0.3427854223914437
  0.8900108366864288  0.7801882650871690  0.0923205050604139
  0.4443724680314816  0.8888648034294917  0.8443953900469765
  0.5629739086776695  0.7927838687820596  0.5914287984240119
 
             NaN             NaN             NaN
             NaN             NaN             NaN
             NaN             NaN             NaN
             NaN             NaN             NaN
             NaN             NaN             NaN
             NaN             NaN             NaN
             NaN             NaN             NaN
             NaN             NaN             NaN
             NaN             NaN             NaN
             NaN             NaN             NaN
             NaN             NaN             NaN
             NaN             NaN             NaN
             NaN             NaN             NaN
             NaN             NaN             NaN
             NaN             NaN             NaN
             NaN             NaN             NaN
             NaN             NaN             NaN
             NaN             NaN             NaN
             NaN             NaN             NaN
             NaN             NaN             NaN
             NaN             NaN             NaN
             NaN             NaN             NaN
             NaN             NaN             NaN
             NaN             NaN             NaN
             NaN             NaN             NaN
             NaN             NaN             NaN
             NaN             NaN             NaN
             NaN             NaN             NaN
             NaN             NaN             NaN
             NaN             NaN             NaN
             NaN             NaN             NaN
             NaN             NaN             NaN
             NaN             NaN             NaN
             NaN             NaN             NaN
             NaN             NaN             NaN
             NaN             NaN             NaN
             NaN             NaN             NaN
             NaN             NaN             NaN
             NaN             NaN             NaN
             NaN             NaN             NaN
             NaN             NaN             NaN
             NaN             NaN             NaN
             NaN             NaN             NaN
             NaN             NaN             NaN
             NaN             NaN             NaN
             NaN             NaN             NaN
             NaN             NaN             NaN
             NaN             NaN             NaN
             NaN             NaN             NaN
             NaN             NaN             NaN
             NaN             NaN             NaN
             NaN             NaN             NaN
             NaN             NaN             NaN
             NaN             NaN             NaN
             NaN             NaN             NaN
             NaN             NaN             NaN
             NaN             NaN             NaN
             NaN             NaN             NaN
             NaN             NaN             NaN
             NaN             NaN             NaN
             NaN             NaN             NaN
             NaN             NaN             NaN
             NaN             NaN             NaN
             NaN             NaN             NaN
             NaN             NaN             NaN
             NaN             NaN             NaN
             NaN             NaN             NaN
             NaN             NaN             NaN
             NaN             NaN             NaN
             NaN             NaN             NaN
             NaN             NaN             NaN
             NaN             NaN             NaN
