Al   Hf   N                             
   1.00000000000000     
     9.4356055735546214   -0.0000032798132857    0.0000318802590425
    -4.7177998012853264    8.1732331019759812   -0.0005305973442381
    -0.0000333578898880   -0.0009688079991258   10.0791531396508898
   Al   Hf   N 
    35     1    36
Direct
  0.2213005626496525  0.1094719363225565  0.3952560284793663
  0.1093530277797257  0.2196000746326661  0.1460236411954909
  0.8876845508867177  0.1109455725158384  0.8977531550879263
  0.7774836484156182  0.2218381223728656  0.6462837508072568
  0.5548369789515206  0.1117600287898597  0.3990464478615792
  0.4433762943209416  0.2196000971642817  0.1460236385985354
  0.2218999344874959  0.1106706402446704  0.8972016823460578
  0.1159066349766604  0.2232205660979290  0.6495724940501546
  0.8900522379048326  0.1117600190806627  0.3990464416599195
  0.7775619836319407  0.2219947152469715  0.1480555230508855
  0.5563902523175912  0.1109456116686900  0.8977531424200791
  0.4404430637809327  0.2232205719667775  0.6495724975973616
  0.2137294501695592  0.4413113473093944  0.3880757852452277
  0.1096091305648628  0.5568364366136933  0.1454996936690947
  0.8881394876039650  0.4431497737115251  0.8961383079695793
  0.7835327868531508  0.5556775006312620  0.6462990472691672
  0.5607110225990510  0.4413113381138203  0.3880757908530157
  0.4446810895009889  0.5562330198972276  0.1487997913251249
  0.2198871213913449  0.4420525577045069  0.9028463620125393
  0.1052738113703313  0.5556774738691814  0.6462990436596101
  0.8890155340736428  0.4449019075109675  0.3967318433485971
  0.7803564680163930  0.5568364115729381  0.1454997093361499
  0.5552946442944560  0.4420526091476589  0.9028463635013892
  0.2216539193675544  0.7779420312743071  0.3966617112492585
  0.1107005179518197  0.8882717957820390  0.1461222426171389
  0.8886555370618439  0.7780088000216097  0.8961966305145097
  0.7822168765099491  0.8947193405447180  0.6476732688641960
  0.5587247809436988  0.7843203945301056  0.3943545271757287
  0.4437566058551496  0.8901360163565855  0.1481244687000540
  0.2224825188653483  0.7780087972963585  0.8961966219498834
  0.1106367163616753  0.8881442356634892  0.6459562286877585
  0.8894173112249035  0.7779420334240754  0.3966617127126781
  0.7795086045151862  0.8901359696764217  0.1481244768523027
  0.5577297094109284  0.7823302002320460  0.9033861781224886
  0.4456316304826373  0.8947193503110356  0.6476732623548855
  0.4374664156505332  0.5418037373170463  0.6411198265938651
  0.1096548878411951  0.2194096305156279  0.3348559435072787
  0.2215720268915291  0.1100148170464976  0.0871986692163631
  0.7775208372412479  0.2219124551403269  0.8372758841978509
  0.8921931669621088  0.1132488306904520  0.5892575916891971
  0.4428839366013193  0.2194096342487200  0.3348559422158814
  0.5563914087167063  0.1108238341457621  0.0879789823376171
  0.1091757613476716  0.2211536722817797  0.8416400617681745
  0.2195839410460039  0.1060387198247241  0.5843519890621778
  0.7777077090976618  0.2222862272128481  0.3390326639502419
  0.8875616416652079  0.1108237872486768  0.0879789896877767
  0.4451071236063768  0.2211537075013723  0.8416400588095243
  0.5541848260309123  0.1132488482691585  0.5892575962456732
  0.1090579845583051  0.5577595103706940  0.3339575467877083
  0.2211249077506778  0.4440497412475111  0.0925785249770072
  0.7762366760427852  0.5547603700673633  0.8375758606695527
  0.8886282709754738  0.4441274371296444  0.5871119178888478
  0.4443040313072757  0.5554789358272600  0.3445665919535799
  0.5560540151800595  0.4440497643526342  0.0925785267970554
  0.1116528825300449  0.5547603576827598  0.8375758556212816
  0.1948677447575093  0.4353600400873958  0.5745501715250967
  0.7818306682853233  0.5577595022353989  0.3339575597071018
  0.8883278734159603  0.4435265579978562  0.0859766324187348
  0.4461424707556176  0.5591557659455830  0.8554183372663786
  0.5736214136433162  0.4353600583425603  0.5745501815669201
  0.1104749828267302  0.8878207658570076  0.3362204988867248
  0.2224787966005124  0.7782518725094150  0.0863213524645658
  0.7771258531211203  0.8888717486665314  0.8386034465379169
  0.8879763698166272  0.7773601253848312  0.5879943639564900
  0.4432709716394854  0.8901485518056376  0.3376667039251871
  0.5563861938839594  0.7796431782433118  0.0933554084443458
  0.1107689767115474  0.8884087039382820  0.8366869396944949
  0.2225129258909249  0.7773601113710455  0.5879943632115854
  0.7800067639767221  0.8901485362816715  0.3376667080094435
  0.8889023083753571  0.7782518539356147  0.0863213605802997
  0.4448751355144438  0.8888717684181486  0.8386034416625492
  0.5651737340417711  0.7972182974423916  0.5837825654448210
 
             NaN             NaN             NaN
             NaN             NaN             NaN
             NaN             NaN             NaN
             NaN             NaN             NaN
             NaN             NaN             NaN
             NaN             NaN             NaN
             NaN             NaN             NaN
             NaN             NaN             NaN
             NaN             NaN             NaN
             NaN             NaN             NaN
             NaN             NaN             NaN
             NaN             NaN             NaN
             NaN             NaN             NaN
             NaN             NaN             NaN
             NaN             NaN             NaN
             NaN             NaN             NaN
             NaN             NaN             NaN
             NaN             NaN             NaN
             NaN             NaN             NaN
             NaN             NaN             NaN
             NaN             NaN             NaN
             NaN             NaN             NaN
             NaN             NaN             NaN
             NaN             NaN             NaN
             NaN             NaN             NaN
             NaN             NaN             NaN
             NaN             NaN             NaN
             NaN             NaN             NaN
             NaN             NaN             NaN
             NaN             NaN             NaN
             NaN             NaN             NaN
             NaN             NaN             NaN
             NaN             NaN             NaN
             NaN             NaN             NaN
             NaN             NaN             NaN
             NaN             NaN             NaN
             NaN             NaN             NaN
             NaN             NaN             NaN
             NaN             NaN             NaN
             NaN             NaN             NaN
             NaN             NaN             NaN
             NaN             NaN             NaN
             NaN             NaN             NaN
             NaN             NaN             NaN
             NaN             NaN             NaN
             NaN             NaN             NaN
             NaN             NaN             NaN
             NaN             NaN             NaN
             NaN             NaN             NaN
             NaN             NaN             NaN
             NaN             NaN             NaN
             NaN             NaN             NaN
             NaN             NaN             NaN
             NaN             NaN             NaN
             NaN             NaN             NaN
             NaN             NaN             NaN
             NaN             NaN             NaN
             NaN             NaN             NaN
             NaN             NaN             NaN
             NaN             NaN             NaN
             NaN             NaN             NaN
             NaN             NaN             NaN
             NaN             NaN             NaN
             NaN             NaN             NaN
             NaN             NaN             NaN
             NaN             NaN             NaN
             NaN             NaN             NaN
             NaN             NaN             NaN
             NaN             NaN             NaN
             NaN             NaN             NaN
             NaN             NaN             NaN
             NaN             NaN             NaN
