supercell of unknown system             
   1.00000000000000     
     9.3842336339402372    0.0010189013354760    0.0022723306501444
    -4.6912440623945191    8.1383440815051458   -0.0026580017328102
     0.0024371908154034   -0.0018817299773985   10.0207043960708848
   Al   Hf   N 
    34     2    36
Direct
  0.2333137757830244  0.1079412736123189  0.3006757947294574
  0.8873195957790898  0.1095349058856598  0.7901712457057144
  0.7754549008951770  0.2226785097861352  0.5446822079890907
  0.5461361680541259  0.1077964841707413  0.2939494045736453
  0.4506160739578036  0.2240090822872389  0.0451362473166839
  0.2227248460660860  0.1114604023640027  0.7917897935461511
  0.1121798440664463  0.2224673169470677  0.5414736349424416
  0.8814310181932044  0.1086710205464172  0.3036838610702262
  0.7741485447124816  0.2233209426315312  0.0456372426160030
  0.5566043356222252  0.1124495979443338  0.7966086478197383
  0.4476815095514368  0.2255516485096436  0.5486710722886627
  0.2243013937281830  0.4450465597624174  0.2972879434313853
  0.1102934193519758  0.5579460487874144  0.0396839305291508
  0.8880264416534018  0.4440088500310964  0.7950443189438730
  0.7771187197182314  0.5549967919380663  0.5463496420879821
  0.5571420938445044  0.4462089062154178  0.2964687171539069
  0.4488952681466714  0.5615576044843280  0.0454843297664880
  0.2250179907911729  0.4480336719215074  0.7899426229629611
  0.1084999131222020  0.5519841004299195  0.5464082624055138
  0.8840133534856491  0.4391196042413270  0.2957009787682665
  0.7775891019913885  0.5547542468663451  0.0469565684413951
  0.5560544898071313  0.4457413448490328  0.7969235581822147
  0.4465733580364315  0.5566667228023263  0.5447200241118821
  0.1038588209971749  0.8949274096905881  0.0359138440186797
  0.8866302908969956  0.7766956885531897  0.7954691340048115
  0.7764117982997263  0.8866848602825783  0.5466659284040674
  0.5620246163870775  0.7779115699216916  0.2939360376235669
  0.4475236875078039  0.8923389654195262  0.0406978528692363
  0.2230893769703783  0.7775615893553436  0.7929186140092384
  0.1068729932807884  0.8894906276015035  0.5534349553421620
  0.8825876174164833  0.7756512550439609  0.2977286021405234
  0.7853444411559707  0.8918439062098287  0.0426744459011701
  0.5556558167072509  0.7768154079914567  0.7957897768157949
  0.4506726057557984  0.8905471037206141  0.5515597831101076
  0.1037992550991831  0.2097817528345303  0.0510661956494829
  0.2286135463682726  0.7923915773117045  0.2951939018161056
  0.1123995830584406  0.2202645030208714  0.3470902582518391
  0.2373590079794994  0.1071377526658566  0.1115347856725108
  0.7795747544823612  0.2223057064715448  0.8546120516530991
  0.8886514448070741  0.1112232834659252  0.5999095118240945
  0.4516342054137965  0.2320275618854950  0.3618340351080818
  0.5571253913557257  0.1126956878401089  0.1016271749610311
  0.1123399730820651  0.2265102860246699  0.8428178499686112
  0.2238355430669259  0.1133218849453428  0.6032053075462471
  0.7715248860789785  0.2211510881742669  0.3562439376883972
  0.8675381568586147  0.1049028008035506  0.1160031433235247
  0.4440232268621145  0.2229785184978752  0.8547594761559481
  0.5560382944738933  0.1122280655671020  0.6080464104035954
  0.1031929783852021  0.5422168191174066  0.3576541196808662
  0.2300483731669232  0.4616855154179831  0.1067780472460740
  0.7779405789786296  0.5553547815748772  0.8565079696254188
  0.8875358134360596  0.4438529569760163  0.6056686386896644
  0.4463799731732578  0.5571073620607336  0.3543046450287761
  0.5553825147396054  0.4451327054655962  0.1049928287646296
  0.1112215258231330  0.5550963088553047  0.8498076044763749
  0.2238885927934007  0.4449373322395473  0.6005187169888018
  0.7781595826808214  0.5551172067910883  0.3559641813553398
  0.8899601006436129  0.4445414167813766  0.1039686805971272
  0.4440176741803583  0.5557684972213863  0.8551449442412959
  0.5565429460533053  0.4464193165435120  0.6075896784325394
  0.0952309448402389  0.8925093105801380  0.3665642310239647
  0.2193934220624456  0.7801456244209817  0.0892743365711297
  0.7761571705518975  0.8886899865710021  0.8515998088990386
  0.8854420005326773  0.7752888928296215  0.6072769827582647
  0.4649510856523023  0.8923096526277590  0.3644025310765642
  0.5590064121858802  0.7814748960183096  0.1029700653753309
  0.1114149574547270  0.8881435948529344  0.8455798752153783
  0.2230895279388534  0.7775544574490993  0.5993654584761288
  0.7771635324770045  0.8870955731137329  0.3578182450800824
  0.8865134129624934  0.7722508270681487  0.1086610290420751
  0.4452893900749331  0.8894333904043776  0.8510169708632276
  0.5561484745879142  0.7757834357203777  0.6074713336065116
 
  0.00000000E+00  0.00000000E+00  0.00000000E+00
  0.00000000E+00  0.00000000E+00  0.00000000E+00
  0.00000000E+00  0.00000000E+00  0.00000000E+00
  0.00000000E+00  0.00000000E+00  0.00000000E+00
  0.00000000E+00  0.00000000E+00  0.00000000E+00
  0.00000000E+00  0.00000000E+00  0.00000000E+00
  0.00000000E+00  0.00000000E+00  0.00000000E+00
  0.00000000E+00  0.00000000E+00  0.00000000E+00
  0.00000000E+00  0.00000000E+00  0.00000000E+00
  0.00000000E+00  0.00000000E+00  0.00000000E+00
  0.00000000E+00  0.00000000E+00  0.00000000E+00
  0.00000000E+00  0.00000000E+00  0.00000000E+00
  0.00000000E+00  0.00000000E+00  0.00000000E+00
  0.00000000E+00  0.00000000E+00  0.00000000E+00
  0.00000000E+00  0.00000000E+00  0.00000000E+00
  0.00000000E+00  0.00000000E+00  0.00000000E+00
  0.00000000E+00  0.00000000E+00  0.00000000E+00
  0.00000000E+00  0.00000000E+00  0.00000000E+00
  0.00000000E+00  0.00000000E+00  0.00000000E+00
  0.00000000E+00  0.00000000E+00  0.00000000E+00
  0.00000000E+00  0.00000000E+00  0.00000000E+00
  0.00000000E+00  0.00000000E+00  0.00000000E+00
  0.00000000E+00  0.00000000E+00  0.00000000E+00
  0.00000000E+00  0.00000000E+00  0.00000000E+00
  0.00000000E+00  0.00000000E+00  0.00000000E+00
  0.00000000E+00  0.00000000E+00  0.00000000E+00
  0.00000000E+00  0.00000000E+00  0.00000000E+00
  0.00000000E+00  0.00000000E+00  0.00000000E+00
  0.00000000E+00  0.00000000E+00  0.00000000E+00
  0.00000000E+00  0.00000000E+00  0.00000000E+00
  0.00000000E+00  0.00000000E+00  0.00000000E+00
  0.00000000E+00  0.00000000E+00  0.00000000E+00
  0.00000000E+00  0.00000000E+00  0.00000000E+00
  0.00000000E+00  0.00000000E+00  0.00000000E+00
  0.00000000E+00  0.00000000E+00  0.00000000E+00
  0.00000000E+00  0.00000000E+00  0.00000000E+00
  0.00000000E+00  0.00000000E+00  0.00000000E+00
  0.00000000E+00  0.00000000E+00  0.00000000E+00
  0.00000000E+00  0.00000000E+00  0.00000000E+00
  0.00000000E+00  0.00000000E+00  0.00000000E+00
  0.00000000E+00  0.00000000E+00  0.00000000E+00
  0.00000000E+00  0.00000000E+00  0.00000000E+00
  0.00000000E+00  0.00000000E+00  0.00000000E+00
  0.00000000E+00  0.00000000E+00  0.00000000E+00
  0.00000000E+00  0.00000000E+00  0.00000000E+00
  0.00000000E+00  0.00000000E+00  0.00000000E+00
  0.00000000E+00  0.00000000E+00  0.00000000E+00
  0.00000000E+00  0.00000000E+00  0.00000000E+00
  0.00000000E+00  0.00000000E+00  0.00000000E+00
  0.00000000E+00  0.00000000E+00  0.00000000E+00
  0.00000000E+00  0.00000000E+00  0.00000000E+00
  0.00000000E+00  0.00000000E+00  0.00000000E+00
  0.00000000E+00  0.00000000E+00  0.00000000E+00
  0.00000000E+00  0.00000000E+00  0.00000000E+00
  0.00000000E+00  0.00000000E+00  0.00000000E+00
  0.00000000E+00  0.00000000E+00  0.00000000E+00
  0.00000000E+00  0.00000000E+00  0.00000000E+00
  0.00000000E+00  0.00000000E+00  0.00000000E+00
  0.00000000E+00  0.00000000E+00  0.00000000E+00
  0.00000000E+00  0.00000000E+00  0.00000000E+00
  0.00000000E+00  0.00000000E+00  0.00000000E+00
  0.00000000E+00  0.00000000E+00  0.00000000E+00
  0.00000000E+00  0.00000000E+00  0.00000000E+00
  0.00000000E+00  0.00000000E+00  0.00000000E+00
  0.00000000E+00  0.00000000E+00  0.00000000E+00
  0.00000000E+00  0.00000000E+00  0.00000000E+00
  0.00000000E+00  0.00000000E+00  0.00000000E+00
  0.00000000E+00  0.00000000E+00  0.00000000E+00
  0.00000000E+00  0.00000000E+00  0.00000000E+00
  0.00000000E+00  0.00000000E+00  0.00000000E+00
  0.00000000E+00  0.00000000E+00  0.00000000E+00
  0.00000000E+00  0.00000000E+00  0.00000000E+00
