supercell of unknown system             
   1.00000000000000     
     9.3550449868524748   -0.0040958481311947    0.0019660285411168
    -4.6810672036184693    8.0996506247728917   -0.0019219001814352
     0.0020986412831347   -0.0011492329452570    9.9759295071806111
   Al   Hf   N 
    35     1    36
Direct
  0.2223580639606411  0.1112540598031231  0.2957386800717359
  0.1098076805312260  0.2199215384648596  0.0466916515768148
  0.8889060315565303  0.1107990129906398  0.7954689803696695
  0.7774669244719803  0.2222531408865294  0.5455547149813071
  0.5563106566004379  0.1122233886574548  0.2940345237910691
  0.4439038732956249  0.2207410328612127  0.0439593593603576
  0.2216864485385273  0.1105397455277597  0.7952942412001960
  0.1061268942869660  0.2169332200515441  0.5456737504214644
  0.8880534853085678  0.1116142819278423  0.2958500478297452
  0.7774931819372171  0.2222300259151240  0.0438050983001332
  0.5547422917734366  0.1094653957790328  0.7928746249312155
  0.4453994296564403  0.2175797863932019  0.5441125790362591
  0.2205179846792689  0.4451096591042614  0.2909281395062209
  0.1095528737449598  0.5562524978533432  0.0462954327103802
  0.8902601906980152  0.4449998630113754  0.7928725615674921
  0.7821556525880169  0.5543547517207301  0.5441101802023738
  0.5574324906739037  0.4422721193931878  0.2904772011391543
  0.4447036425998476  0.5549781167622285  0.0436012898350313
  0.2150548688656642  0.4398931212519130  0.8036218767755443
  0.1178640525793568  0.5606432758888218  0.5415182891225641
  0.8874777666524238  0.4434024106670833  0.2940326466069010
  0.7789852734000888  0.5558329443154335  0.0439629785052489
  0.5582208184641928  0.4415233795801115  0.7964314526841250
  0.2216895192387440  0.7780284942758016  0.2944765354160452
  0.1105879302821506  0.8891586574276644  0.0457830062767783
  0.8892239051029804  0.7780691028392255  0.7953018062317909
  0.7827684409226237  0.8935562770278054  0.5456760506652003
  0.5545555435506273  0.7791288325217067  0.2909400668152387
  0.4434750624722739  0.8901569504724520  0.0463003138761948
  0.2212553562510564  0.7784955228664217  0.7968772017102168
  0.1104646339835398  0.8892979920379531  0.5460267270826478
  0.8884719848931510  0.7773644406085438  0.2957434701244850
  0.7797755790973682  0.8898816445952349  0.0466976175704374
  0.5598250469500599  0.7846351586682871  0.8036273291514533
  0.4390950602323187  0.8818321513914213  0.5415193180099536
  0.4371968024614503  0.5624795454634040  0.5519707404710132
  0.1114476611292545  0.2234970137289025  0.3544452874893125
  0.2223949764875570  0.1110435346294949  0.1053175033034819
  0.7776583222417131  0.2220848386171994  0.8526747665963299
  0.8886502810686281  0.1110428753655768  0.6048117054574789
  0.4446526599602194  0.2222723890975189  0.3531978676839884
  0.5562787866727845  0.1123031386534237  0.1035613918860321
  0.1092767760042506  0.2185817550802440  0.8576056376650811
  0.2223852113752471  0.1118695653901938  0.6038924635845149
  0.7774502686893783  0.2222624525859445  0.3543652272352844
  0.8882430532086829  0.1114426345618185  0.1056734896003135
  0.4435982702212726  0.2202582525300372  0.8537921233597885
  0.5539089603545690  0.1067279147273723  0.6023732518059859
  0.1087024740224720  0.5548186299862081  0.3496446300639420
  0.2215900534432151  0.4440177133875736  0.1005036114860474
  0.7794854780301606  0.5561556170273008  0.8537963801854573
  0.8929818137851697  0.4458188037665920  0.6023730356606620
  0.4461210392636445  0.5535087160722156  0.3419481439088941
  0.5560849695919359  0.4436374941519929  0.0998577288485194
  0.1099927449412306  0.5566474497755891  0.8569285261683461
  0.2007356618546439  0.4294020215176744  0.6159592699717393
  0.7774385897988552  0.5550701415743617  0.3531951794806503
  0.8874111968680580  0.4434451457640449  0.1035620341215022
  0.4444373263311761  0.5552441316160497  0.8483444130263464
  0.5635284669878544  0.4362175631362106  0.6058853475914745
  0.1106032133281261  0.8891293676031964  0.3550062037300208
  0.2214069102568175  0.7783186941214453  0.1043337599643195
  0.7811358096132821  0.8904295497354013  0.8576166748160219
  0.8879021137922578  0.7773679739739308  0.6038977318668017
  0.4448961924349959  0.8909964487530999  0.3496427887325737
  0.5556743647571523  0.7780822857923511  0.1005130584979028
  0.1103731275544106  0.8893961936117094  0.8555647802526281
  0.2191404140316635  0.7806009310143054  0.6077992737317501
  0.7761707569556435  0.8882142240001585  0.3544497526961052
  0.8887020529359972  0.7773440109729250  0.1053218757468954
  0.4430984852419328  0.8897284100026894  0.8569349596540619
  0.5703108155905241  0.7989373035472838  0.6159747459182370
 
  0.00000000E+00  0.00000000E+00  0.00000000E+00
  0.00000000E+00  0.00000000E+00  0.00000000E+00
  0.00000000E+00  0.00000000E+00  0.00000000E+00
  0.00000000E+00  0.00000000E+00  0.00000000E+00
  0.00000000E+00  0.00000000E+00  0.00000000E+00
  0.00000000E+00  0.00000000E+00  0.00000000E+00
  0.00000000E+00  0.00000000E+00  0.00000000E+00
  0.00000000E+00  0.00000000E+00  0.00000000E+00
  0.00000000E+00  0.00000000E+00  0.00000000E+00
  0.00000000E+00  0.00000000E+00  0.00000000E+00
  0.00000000E+00  0.00000000E+00  0.00000000E+00
  0.00000000E+00  0.00000000E+00  0.00000000E+00
  0.00000000E+00  0.00000000E+00  0.00000000E+00
  0.00000000E+00  0.00000000E+00  0.00000000E+00
  0.00000000E+00  0.00000000E+00  0.00000000E+00
  0.00000000E+00  0.00000000E+00  0.00000000E+00
  0.00000000E+00  0.00000000E+00  0.00000000E+00
  0.00000000E+00  0.00000000E+00  0.00000000E+00
  0.00000000E+00  0.00000000E+00  0.00000000E+00
  0.00000000E+00  0.00000000E+00  0.00000000E+00
  0.00000000E+00  0.00000000E+00  0.00000000E+00
  0.00000000E+00  0.00000000E+00  0.00000000E+00
  0.00000000E+00  0.00000000E+00  0.00000000E+00
  0.00000000E+00  0.00000000E+00  0.00000000E+00
  0.00000000E+00  0.00000000E+00  0.00000000E+00
  0.00000000E+00  0.00000000E+00  0.00000000E+00
  0.00000000E+00  0.00000000E+00  0.00000000E+00
  0.00000000E+00  0.00000000E+00  0.00000000E+00
  0.00000000E+00  0.00000000E+00  0.00000000E+00
  0.00000000E+00  0.00000000E+00  0.00000000E+00
  0.00000000E+00  0.00000000E+00  0.00000000E+00
  0.00000000E+00  0.00000000E+00  0.00000000E+00
  0.00000000E+00  0.00000000E+00  0.00000000E+00
  0.00000000E+00  0.00000000E+00  0.00000000E+00
  0.00000000E+00  0.00000000E+00  0.00000000E+00
  0.00000000E+00  0.00000000E+00  0.00000000E+00
  0.00000000E+00  0.00000000E+00  0.00000000E+00
  0.00000000E+00  0.00000000E+00  0.00000000E+00
  0.00000000E+00  0.00000000E+00  0.00000000E+00
  0.00000000E+00  0.00000000E+00  0.00000000E+00
  0.00000000E+00  0.00000000E+00  0.00000000E+00
  0.00000000E+00  0.00000000E+00  0.00000000E+00
  0.00000000E+00  0.00000000E+00  0.00000000E+00
  0.00000000E+00  0.00000000E+00  0.00000000E+00
  0.00000000E+00  0.00000000E+00  0.00000000E+00
  0.00000000E+00  0.00000000E+00  0.00000000E+00
  0.00000000E+00  0.00000000E+00  0.00000000E+00
  0.00000000E+00  0.00000000E+00  0.00000000E+00
  0.00000000E+00  0.00000000E+00  0.00000000E+00
  0.00000000E+00  0.00000000E+00  0.00000000E+00
  0.00000000E+00  0.00000000E+00  0.00000000E+00
  0.00000000E+00  0.00000000E+00  0.00000000E+00
  0.00000000E+00  0.00000000E+00  0.00000000E+00
  0.00000000E+00  0.00000000E+00  0.00000000E+00
  0.00000000E+00  0.00000000E+00  0.00000000E+00
  0.00000000E+00  0.00000000E+00  0.00000000E+00
  0.00000000E+00  0.00000000E+00  0.00000000E+00
  0.00000000E+00  0.00000000E+00  0.00000000E+00
  0.00000000E+00  0.00000000E+00  0.00000000E+00
  0.00000000E+00  0.00000000E+00  0.00000000E+00
  0.00000000E+00  0.00000000E+00  0.00000000E+00
  0.00000000E+00  0.00000000E+00  0.00000000E+00
  0.00000000E+00  0.00000000E+00  0.00000000E+00
  0.00000000E+00  0.00000000E+00  0.00000000E+00
  0.00000000E+00  0.00000000E+00  0.00000000E+00
  0.00000000E+00  0.00000000E+00  0.00000000E+00
  0.00000000E+00  0.00000000E+00  0.00000000E+00
  0.00000000E+00  0.00000000E+00  0.00000000E+00
  0.00000000E+00  0.00000000E+00  0.00000000E+00
  0.00000000E+00  0.00000000E+00  0.00000000E+00
  0.00000000E+00  0.00000000E+00  0.00000000E+00
  0.00000000E+00  0.00000000E+00  0.00000000E+00
