supercell of unknown system             
   1.00000000000000     
     9.3409745456590656   -0.0000367861806179    0.0000202767369522
    -4.6705184537850206    8.0896321095691857   -0.0000664894934089
     0.0000112897488275   -0.0000863989924916    9.9423932048990054
   Al   Ti   N 
    35     1    36
Direct
  0.2224525352631446  0.1107943533021398  0.2954283666275330
  0.1109367506027823  0.2211787752911150  0.0456182984319895
  0.8892360999704110  0.1107426493370625  0.7952887878824626
  0.7780431055810126  0.2219559624817720  0.5459103365634306
  0.5561903530205612  0.1110808710045532  0.2952345218557326
  0.4443459552227722  0.2211702151291419  0.0456305192761732
  0.2224351203015260  0.1107662540328107  0.7954131840589511
  0.1086808936248715  0.2197904900125849  0.5449024967966025
  0.8890125288352806  0.1110837419536637  0.2952205165669639
  0.7780477142504978  0.2219891900345132  0.0452075881819169
  0.5556178020110423  0.1107397139253834  0.7952906988050259
  0.4452210756513182  0.2197645375837567  0.5449084201048819
  0.2221049724729980  0.4440413290010952  0.2935599253940353
  0.1109259233714681  0.5556861307313952  0.0456129027435352
  0.8892335625795340  0.4443504682736616  0.7952906599630651
  0.7802086492592579  0.5547437649544165  0.5449181982596443
  0.5560414843629644  0.4440347851703734  0.2935646507239724
  0.4447168112135103  0.5553350015478316  0.0443737080697133
  0.2187856665413364  0.4423170715703861  0.7975217253387328
  0.1086825951820813  0.5547578337962307  0.5449049556263361
  0.8890000806502769  0.4438799358833521  0.2952305808398989
  0.7788602332301835  0.5556847392706175  0.0456258994243228
  0.5576430372525465  0.4423066103842714  0.7975527048509434
  0.2224495574382672  0.7776127371581083  0.2954244613618542
  0.1113725787302542  0.8886513671142566  0.0452584814032804
  0.8891886340430872  0.7775232010685684  0.7954157849712971
  0.7802285545970591  0.8913491069020978  0.5449030844805449
  0.5560619335438020  0.7780097401525694  0.2935519474389849
  0.4443520292838770  0.8891201069192718  0.0456141191196053
  0.2224368653615301  0.7775255335481361  0.7954111036871439
  0.1113599357986459  0.8886087258587665  0.5454819524833141
  0.8892692335708716  0.7776084698538455  0.2954387224901609
  0.7788707912066073  0.8891136838569551  0.0456167918237824
  0.5576506701184130  0.7811981829470938  0.7975283346070228
  0.4452249798815018  0.8913344591796886  0.5449005728784897
  0.4447207027740632  0.5553076745892298  0.5527204016618867
  0.1112931985392009  0.2220107522085257  0.3537220939696297
  0.2223374184445390  0.1105691889401612  0.1045521024877587
  0.7780286775145413  0.2219482020895498  0.8540071264436691
  0.8891087292234943  0.1108946124624097  0.6044074129506356
  0.4448287185044464  0.2220034831164739  0.3537328213857407
  0.5561390399278565  0.1110376518335698  0.1044743208430461
  0.1107676588549680  0.2206157976485770  0.8551957309158311
  0.2226130162002846  0.1111059702882997  0.6039031299056745
  0.7780634000827575  0.2220026645014030  0.3545803616885692
  0.8890109224947622  0.1110369709399919  0.1044634989767488
  0.4439535302463327  0.2206052192462948  0.8552026348806834
  0.5559138935369958  0.1108956180949292  0.6044063510345836
  0.1112775377244688  0.5552326680537760  0.3537285369253169
  0.2219746292240643  0.4439590692155946  0.1021784463321183
  0.7793637510333937  0.5560128568844291  0.8551973956245078
  0.8891025454837731  0.4440814110819673  0.6044084287754643
  0.4447450795272800  0.5553722669679360  0.3468245358500539
  0.5560816345113579  0.4439514962216577  0.1021883501848109
  0.1107644360236861  0.5560185908815427  0.8551904613218611
  0.2083771621234334  0.4371135406661537  0.6078860762526830
  0.7780616512681817  0.5552251759871041  0.3537415473144918
  0.8890022552113024  0.4438992589328237  0.1044701261829033
  0.4447027034900799  0.5552878945022428  0.8501798017564823
  0.5628837333537007  0.4370805629974797  0.6079124297074046
  0.1113881697919012  0.8886674855571286  0.3545008650720831
  0.2223403798501806  0.7776991698134381  0.1045412193990032
  0.7793646898445985  0.8892181196889766  0.8551902546594192
  0.8888567631213036  0.7773593721028789  0.6039010452256122
  0.4448271839290285  0.8887946793330670  0.3537247609287348
  0.5560918887762156  0.7780812956060856  0.1021767712350652
  0.1113520480218071  0.8886092325343142  0.8539836675613657
  0.2226149462670293  0.7773698986482529  0.6039021516114147
  0.7780805415165020  0.8887967724692416  0.3537282840951548
  0.8894586305534560  0.7776931070184006  0.1045551513572747
  0.4439581178922225  0.8892135295037278  0.8551889916720796
  0.5628952237502389  0.7916734597236115  0.6078850265748343
 
  0.00000000E+00  0.00000000E+00  0.00000000E+00
  0.00000000E+00  0.00000000E+00  0.00000000E+00
  0.00000000E+00  0.00000000E+00  0.00000000E+00
  0.00000000E+00  0.00000000E+00  0.00000000E+00
  0.00000000E+00  0.00000000E+00  0.00000000E+00
  0.00000000E+00  0.00000000E+00  0.00000000E+00
  0.00000000E+00  0.00000000E+00  0.00000000E+00
  0.00000000E+00  0.00000000E+00  0.00000000E+00
  0.00000000E+00  0.00000000E+00  0.00000000E+00
  0.00000000E+00  0.00000000E+00  0.00000000E+00
  0.00000000E+00  0.00000000E+00  0.00000000E+00
  0.00000000E+00  0.00000000E+00  0.00000000E+00
  0.00000000E+00  0.00000000E+00  0.00000000E+00
  0.00000000E+00  0.00000000E+00  0.00000000E+00
  0.00000000E+00  0.00000000E+00  0.00000000E+00
  0.00000000E+00  0.00000000E+00  0.00000000E+00
  0.00000000E+00  0.00000000E+00  0.00000000E+00
  0.00000000E+00  0.00000000E+00  0.00000000E+00
  0.00000000E+00  0.00000000E+00  0.00000000E+00
  0.00000000E+00  0.00000000E+00  0.00000000E+00
  0.00000000E+00  0.00000000E+00  0.00000000E+00
  0.00000000E+00  0.00000000E+00  0.00000000E+00
  0.00000000E+00  0.00000000E+00  0.00000000E+00
  0.00000000E+00  0.00000000E+00  0.00000000E+00
  0.00000000E+00  0.00000000E+00  0.00000000E+00
  0.00000000E+00  0.00000000E+00  0.00000000E+00
  0.00000000E+00  0.00000000E+00  0.00000000E+00
  0.00000000E+00  0.00000000E+00  0.00000000E+00
  0.00000000E+00  0.00000000E+00  0.00000000E+00
  0.00000000E+00  0.00000000E+00  0.00000000E+00
  0.00000000E+00  0.00000000E+00  0.00000000E+00
  0.00000000E+00  0.00000000E+00  0.00000000E+00
  0.00000000E+00  0.00000000E+00  0.00000000E+00
  0.00000000E+00  0.00000000E+00  0.00000000E+00
  0.00000000E+00  0.00000000E+00  0.00000000E+00
  0.00000000E+00  0.00000000E+00  0.00000000E+00
  0.00000000E+00  0.00000000E+00  0.00000000E+00
  0.00000000E+00  0.00000000E+00  0.00000000E+00
  0.00000000E+00  0.00000000E+00  0.00000000E+00
  0.00000000E+00  0.00000000E+00  0.00000000E+00
  0.00000000E+00  0.00000000E+00  0.00000000E+00
  0.00000000E+00  0.00000000E+00  0.00000000E+00
  0.00000000E+00  0.00000000E+00  0.00000000E+00
  0.00000000E+00  0.00000000E+00  0.00000000E+00
  0.00000000E+00  0.00000000E+00  0.00000000E+00
  0.00000000E+00  0.00000000E+00  0.00000000E+00
  0.00000000E+00  0.00000000E+00  0.00000000E+00
  0.00000000E+00  0.00000000E+00  0.00000000E+00
  0.00000000E+00  0.00000000E+00  0.00000000E+00
  0.00000000E+00  0.00000000E+00  0.00000000E+00
  0.00000000E+00  0.00000000E+00  0.00000000E+00
  0.00000000E+00  0.00000000E+00  0.00000000E+00
  0.00000000E+00  0.00000000E+00  0.00000000E+00
  0.00000000E+00  0.00000000E+00  0.00000000E+00
  0.00000000E+00  0.00000000E+00  0.00000000E+00
  0.00000000E+00  0.00000000E+00  0.00000000E+00
  0.00000000E+00  0.00000000E+00  0.00000000E+00
  0.00000000E+00  0.00000000E+00  0.00000000E+00
  0.00000000E+00  0.00000000E+00  0.00000000E+00
  0.00000000E+00  0.00000000E+00  0.00000000E+00
  0.00000000E+00  0.00000000E+00  0.00000000E+00
  0.00000000E+00  0.00000000E+00  0.00000000E+00
  0.00000000E+00  0.00000000E+00  0.00000000E+00
  0.00000000E+00  0.00000000E+00  0.00000000E+00
  0.00000000E+00  0.00000000E+00  0.00000000E+00
  0.00000000E+00  0.00000000E+00  0.00000000E+00
  0.00000000E+00  0.00000000E+00  0.00000000E+00
  0.00000000E+00  0.00000000E+00  0.00000000E+00
  0.00000000E+00  0.00000000E+00  0.00000000E+00
  0.00000000E+00  0.00000000E+00  0.00000000E+00
  0.00000000E+00  0.00000000E+00  0.00000000E+00
  0.00000000E+00  0.00000000E+00  0.00000000E+00
