supercell of unknown system             
   1.00000000000000     
     9.3277485192190674    0.0109810344080191   -0.0057207131526219
    -4.6543630573582426    8.0835400552421532    0.0057042910072665
    -0.0061078912097966    0.0035058740032295    9.9628640258878178
   Al   Mg   N 
    35     1    36
Direct
  0.2213035462158501  0.1106589079295119  0.2949768040507905
  0.1105019962846896  0.2216224122877932  0.0456696802094996
  0.8890244309138069  0.1109780293663718  0.7951860838959632
  0.7779209080771921  0.2220810454867035  0.5458032856195203
  0.5561049537335947  0.1102855071031925  0.2951631917203983
  0.4438262393038102  0.2205885039680382  0.0461642319613631
  0.2214637603840615  0.1109242029221491  0.7958314972898890
  0.1088823781811001  0.2222040865530062  0.5456490707386905
  0.8889575559990064  0.1110916839373246  0.2957115852791787
  0.7779695117683119  0.2220879388509260  0.0454546053111216
  0.5553426240359940  0.1108447706071019  0.7960267685330749
  0.4392467098978585  0.2141185578924478  0.5418657735307093
  0.2229721791809709  0.4439201394586902  0.2943715456704084
  0.1110930004050914  0.5558611411317713  0.0457447343033124
  0.8891548596478103  0.4446650023832746  0.7960247008347565
  0.7858866400292825  0.5607685003274625  0.5418649065294403
  0.5559029907022293  0.4441482384646207  0.2919521232919990
  0.4440852278189240  0.5559629646555209  0.0468424091864179
  0.2192272697195321  0.4428672633139712  0.7960906598363451
  0.1107957848455001  0.5545366961597153  0.5460226942324482
  0.8897600267639945  0.4439472581445258  0.2951674840578562
  0.7794723928642640  0.5562409676328883  0.0461637864993776
  0.5557533755632562  0.4442562752586809  0.8049811086959764
  0.2226018788614823  0.7774579831727166  0.2960088252639963
  0.1113246250796109  0.8887510417619708  0.0453313232208501
  0.8890963167502335  0.7785509667990667  0.7958325467590655
  0.7778030961432378  0.8911141652752548  0.5456431336110370
  0.5561354054656817  0.7770697251618586  0.2943718873469905
  0.4442050421167565  0.8889567816406085  0.0457422233119402
  0.2223246679199278  0.7776888491157194  0.7956390773721296
  0.1111220434201314  0.8888982151751819  0.5455084280742071
  0.8894081707802997  0.7787575597229832  0.2949725006015598
  0.7784307933816592  0.8895472459836000  0.0456643551795608
  0.5571391610555736  0.7807650732712830  0.7960765836901231
  0.4454734717777313  0.8892003875545882  0.5460169138093818
  0.4400820441671485  0.5598850839263037  0.5460677505804270
  0.1108919195538292  0.2218597356111758  0.3543021231518821
  0.2220933059692243  0.1105231858717062  0.1047145371320397
  0.7775893339609183  0.2224225484515188  0.8544419798971461
  0.8887337740705235  0.1112593644517190  0.6046639127150399
  0.4442661662068303  0.2218284532629227  0.3531262318679964
  0.5560624510108880  0.1108781016878098  0.1048308578507573
  0.1103696844952111  0.2208991389606112  0.8558991091251897
  0.2214250537805356  0.1108210088361261  0.6044497163246305
  0.7776945588452477  0.2223552973215135  0.3550211947335100
  0.8888857540793822  0.1111679215238226  0.1051403970236606
  0.4433557145892166  0.2208937320685536  0.8555849069504546
  0.5555845696728738  0.1126165165884245  0.6049883128073006
  0.1113472171545098  0.5552416566946619  0.3547694704086979
  0.2211893706065737  0.4436535839934024  0.1031372970279563
  0.7791182790477080  0.5566609092848225  0.8555855163183423
  0.8873758863782015  0.4444184723096285  0.6049866582704624
  0.4458604267030921  0.5541778043069030  0.3431873536643764
  0.5566674848178934  0.4433964129278110  0.1010799130114606
  0.1103352299648463  0.5564151017391694  0.8557329748303886
  0.2072962087680352  0.4360155778505828  0.6095251204255376
  0.7782223413538176  0.5557914835963302  0.3531240481196392
  0.8891774329172222  0.4439998938933485  0.1048355386911979
  0.4438607648966126  0.5561391829674420  0.8535909919358886
  0.5684167031190981  0.4315916063224989  0.6119258972928918
  0.1112442554032569  0.8888180152563976  0.3548633639496117
  0.2223365148858036  0.7777301698435011  0.1052494622788771
  0.7791083761573177  0.8896337898449502  0.8558921636546586
  0.8891981346370983  0.7785866421489800  0.6044500876349375
  0.4448137115075355  0.8886964737605183  0.3547657738880261
  0.5564060144849634  0.7788558609933389  0.1031376718963486
  0.1111053840310063  0.8889195366386460  0.8543956284618730
  0.2222885364152205  0.7777206898298346  0.6044433837824030
  0.7781968962323873  0.8891549826968799  0.3542978783849975
  0.8895535100452037  0.7779773701049137  0.1047102271469313
  0.4436014177821761  0.8896642854786094  0.8557279434092919
  0.5639825017703330  0.7926777559667855  0.6095088317542263
 
  0.00000000E+00  0.00000000E+00  0.00000000E+00
  0.00000000E+00  0.00000000E+00  0.00000000E+00
  0.00000000E+00  0.00000000E+00  0.00000000E+00
  0.00000000E+00  0.00000000E+00  0.00000000E+00
  0.00000000E+00  0.00000000E+00  0.00000000E+00
  0.00000000E+00  0.00000000E+00  0.00000000E+00
  0.00000000E+00  0.00000000E+00  0.00000000E+00
  0.00000000E+00  0.00000000E+00  0.00000000E+00
  0.00000000E+00  0.00000000E+00  0.00000000E+00
  0.00000000E+00  0.00000000E+00  0.00000000E+00
  0.00000000E+00  0.00000000E+00  0.00000000E+00
  0.00000000E+00  0.00000000E+00  0.00000000E+00
  0.00000000E+00  0.00000000E+00  0.00000000E+00
  0.00000000E+00  0.00000000E+00  0.00000000E+00
  0.00000000E+00  0.00000000E+00  0.00000000E+00
  0.00000000E+00  0.00000000E+00  0.00000000E+00
  0.00000000E+00  0.00000000E+00  0.00000000E+00
  0.00000000E+00  0.00000000E+00  0.00000000E+00
  0.00000000E+00  0.00000000E+00  0.00000000E+00
  0.00000000E+00  0.00000000E+00  0.00000000E+00
  0.00000000E+00  0.00000000E+00  0.00000000E+00
  0.00000000E+00  0.00000000E+00  0.00000000E+00
  0.00000000E+00  0.00000000E+00  0.00000000E+00
  0.00000000E+00  0.00000000E+00  0.00000000E+00
  0.00000000E+00  0.00000000E+00  0.00000000E+00
  0.00000000E+00  0.00000000E+00  0.00000000E+00
  0.00000000E+00  0.00000000E+00  0.00000000E+00
  0.00000000E+00  0.00000000E+00  0.00000000E+00
  0.00000000E+00  0.00000000E+00  0.00000000E+00
  0.00000000E+00  0.00000000E+00  0.00000000E+00
  0.00000000E+00  0.00000000E+00  0.00000000E+00
  0.00000000E+00  0.00000000E+00  0.00000000E+00
  0.00000000E+00  0.00000000E+00  0.00000000E+00
  0.00000000E+00  0.00000000E+00  0.00000000E+00
  0.00000000E+00  0.00000000E+00  0.00000000E+00
  0.00000000E+00  0.00000000E+00  0.00000000E+00
  0.00000000E+00  0.00000000E+00  0.00000000E+00
  0.00000000E+00  0.00000000E+00  0.00000000E+00
  0.00000000E+00  0.00000000E+00  0.00000000E+00
  0.00000000E+00  0.00000000E+00  0.00000000E+00
  0.00000000E+00  0.00000000E+00  0.00000000E+00
  0.00000000E+00  0.00000000E+00  0.00000000E+00
  0.00000000E+00  0.00000000E+00  0.00000000E+00
  0.00000000E+00  0.00000000E+00  0.00000000E+00
  0.00000000E+00  0.00000000E+00  0.00000000E+00
  0.00000000E+00  0.00000000E+00  0.00000000E+00
  0.00000000E+00  0.00000000E+00  0.00000000E+00
  0.00000000E+00  0.00000000E+00  0.00000000E+00
  0.00000000E+00  0.00000000E+00  0.00000000E+00
  0.00000000E+00  0.00000000E+00  0.00000000E+00
  0.00000000E+00  0.00000000E+00  0.00000000E+00
  0.00000000E+00  0.00000000E+00  0.00000000E+00
  0.00000000E+00  0.00000000E+00  0.00000000E+00
  0.00000000E+00  0.00000000E+00  0.00000000E+00
  0.00000000E+00  0.00000000E+00  0.00000000E+00
  0.00000000E+00  0.00000000E+00  0.00000000E+00
  0.00000000E+00  0.00000000E+00  0.00000000E+00
  0.00000000E+00  0.00000000E+00  0.00000000E+00
  0.00000000E+00  0.00000000E+00  0.00000000E+00
  0.00000000E+00  0.00000000E+00  0.00000000E+00
  0.00000000E+00  0.00000000E+00  0.00000000E+00
  0.00000000E+00  0.00000000E+00  0.00000000E+00
  0.00000000E+00  0.00000000E+00  0.00000000E+00
  0.00000000E+00  0.00000000E+00  0.00000000E+00
  0.00000000E+00  0.00000000E+00  0.00000000E+00
  0.00000000E+00  0.00000000E+00  0.00000000E+00
  0.00000000E+00  0.00000000E+00  0.00000000E+00
  0.00000000E+00  0.00000000E+00  0.00000000E+00
  0.00000000E+00  0.00000000E+00  0.00000000E+00
  0.00000000E+00  0.00000000E+00  0.00000000E+00
  0.00000000E+00  0.00000000E+00  0.00000000E+00
  0.00000000E+00  0.00000000E+00  0.00000000E+00
