supercell of unknown system
1.0
  9.311539908768077 6.186899778e-07 9.389025270000001e-08
  -4.655769418491213 8.06403183977033 3.697592445e-07
  1.00260568e-07 5.13447223e-07 9.938712565727066
 Al  N 
36 36 
direct
    0.2222222205445448   0.1111111170576227   0.2954722346010606
    0.1111110980334876   0.2222222031175960   0.0454722416638554
    0.8888888872112116   0.1111111170576228   0.7954722346010605
    0.7777777647001545   0.2222222031175960   0.5454722416638553
    0.5555555538778785   0.1111111170576227   0.2954722346010604
    0.4444444313668212   0.2222222031175960   0.0454722416638551
    0.2222222205445452   0.1111111170576227   0.7954722346010604
    0.1111110980334880   0.2222222031175960   0.5454722416638549
    0.8888888872112122   0.1111111170576228   0.2954722346010601
    0.7777777647001549   0.2222222031175960   0.0454722416638549
    0.5555555538778787   0.1111111170576228   0.7954722346010596
    0.4444444313668216   0.2222222031175960   0.5454722416638544
    0.2222222205445447   0.4444444503909561   0.2954722346010606
    0.1111110980334876   0.5555555364509295   0.0454722416638554
    0.8888888872112114   0.4444444503909561   0.7954722346010605
    0.7777777647001544   0.5555555364509294   0.5454722416638553
    0.5555555538778781   0.4444444503909560   0.2954722346010606
    0.4444444313668212   0.5555555364509291   0.0454722416638551
    0.2222222205445451   0.4444444503909560   0.7954722346010602
    0.1111110980334879   0.5555555364509295   0.5454722416638549
    0.8888888872112122   0.4444444503909561   0.2954722346010601
    0.7777777647001546   0.5555555364509291   0.0454722416638549
    0.5555555538778788   0.4444444503909561   0.7954722346010601
    0.4444444313668219   0.5555555364509293   0.5454722416638549
    0.2222222205445446   0.7777777837242893   0.2954722346010608
    0.1111110980334874   0.8888888697842626   0.0454722416638555
    0.8888888872112114   0.7777777837242894   0.7954722346010605
    0.7777777647001543   0.8888888697842626   0.5454722416638553
    0.5555555538778781   0.7777777837242894   0.2954722346010606
    0.4444444313668210   0.8888888697842627   0.0454722416638553
    0.2222222205445450   0.7777777837242895   0.7954722346010601
    0.1111110980334878   0.8888888697842625   0.5454722416638552
    0.8888888872112117   0.7777777837242892   0.2954722346010601
    0.7777777647001545   0.8888888697842626   0.0454722416638549
    0.5555555538778785   0.7777777837242895   0.7954722346010601
    0.4444444313668217   0.8888888697842626   0.5454722416638549
    0.1111111379774978   0.2222222479369406   0.3545277247442087
    0.2222222101111366   0.1111110985545049   0.1045277443506265
    0.7777778046441646   0.2222222479369407   0.8545277247442087
    0.8888888767778034   0.1111110985545049   0.6045277443506264
    0.4444444713108314   0.2222222479369407   0.3545277247442085
    0.5555555434444701   0.1111110985545049   0.1045277443506263
    0.1111111379774983   0.2222222479369406   0.8545277247442086
    0.2222222101111370   0.1111110985545049   0.6045277443506263
    0.7777778046441651   0.2222222479369407   0.3545277247442083
    0.8888888767778038   0.1111110985545049   0.1045277443506256
    0.4444444713108320   0.2222222479369406   0.8545277247442078
    0.5555555434444708   0.1111110985545049   0.6045277443506257
    0.1111111379774978   0.5555555812702740   0.3545277247442088
    0.2222222101111365   0.4444444318878382   0.1045277443506266
    0.7777778046441645   0.5555555812702740   0.8545277247442087
    0.8888888767778033   0.4444444318878383   0.6045277443506266
    0.4444444713108314   0.5555555812702739   0.3545277247442085
    0.5555555434444700   0.4444444318878383   0.1045277443506263
    0.1111111379774982   0.5555555812702739   0.8545277247442084
    0.2222222101111369   0.4444444318878383   0.6045277443506262
    0.7777778046441649   0.5555555812702739   0.3545277247442083
    0.8888888767778037   0.4444444318878383   0.1045277443506256
    0.4444444713108321   0.5555555812702739   0.8545277247442082
    0.5555555434444706   0.4444444318878382   0.6045277443506262
    0.1111111379774978   0.8888889146036073   0.3545277247442089
    0.2222222101111365   0.7777777652211716   0.1045277443506267
    0.7777778046441645   0.8888889146036074   0.8545277247442088
    0.8888888767778033   0.7777777652211717   0.6045277443506267
    0.4444444713108314   0.8888889146036072   0.3545277247442087
    0.5555555434444700   0.7777777652211717   0.1045277443506265
    0.1111111379774982   0.8888889146036074   0.8545277247442082
    0.2222222101111368   0.7777777652211715   0.6045277443506263
    0.7777778046441650   0.8888889146036072   0.3545277247442083
    0.8888888767778036   0.7777777652211718   0.1045277443506261
    0.4444444713108315   0.8888889146036074   0.8545277247442084
    0.5555555434444702   0.7777777652211715   0.6045277443506257
